LAMMPS Description

2980  atoms
2160  bonds
0  angles
0  dihedrals
0  impropers

2  atom types
1  bond types
0  angle types
0  dihedral types
0  improper types

-15.0 15.0 xlo xhi
-15.0 15.0 ylo yhi
-150.0 150.0 zlo zhi

Atoms

1 1 1 0.0 9.350 -15.000 26.555
2 2 1 0.0 -10.143 7.656 28.167
3 3 1 0.0 3.487 -14.131 39.034
4 4 1 0.0 -9.868 -15.005 -50.005
5 5 1 0.0 1.434 2.091 -1.228
6 6 1 0.0 15.012 11.468 -31.881
7 7 1 0.0 -5.727 -6.173 35.305
8 8 1 0.0 0.260 6.664 32.686
9 9 1 0.0 14.816 15.001 -3.973
10 10 1 0.0 -1.809 5.616 -13.923
11 11 1 0.0 6.974 -13.046 -36.745
12 12 1 0.0 -15.003 6.538 3.612
13 13 1 0.0 1.687 -4.110 45.553
14 14 1 0.0 -3.561 -15.002 -39.233
15 15 1 0.0 3.971 -15.001 -3.738
16 16 1 0.0 -5.589 3.671 42.511
17 17 1 0.0 -8.076 8.809 -32.532
18 18 1 0.0 -5.009 -15.002 12.076
19 19 1 0.0 -0.353 3.724 -24.661
20 20 1 0.0 -0.733 15.000 20.596
21 21 1 0.0 2.793 1.489 -50.007
22 22 1 0.0 -15.003 -15.001 -40.277
23 23 1 0.0 -15.001 -15.005 26.096
24 24 1 0.0 -3.920 -0.092 22.489
25 25 1 0.0 -14.624 -5.095 -49.587
26 26 1 0.0 15.001 0.666 -9.840
27 27 1 0.0 3.705 5.230 -39.360
28 28 1 0.0 -4.772 15.000 -23.319
29 29 1 0.0 -0.518 9.931 50.002
30 30 1 0.0 7.804 10.056 2.919
31 31 1 0.0 -2.085 -8.703 2.942
32 32 1 0.0 15.000 4.490 -41.015
33 33 1 0.0 11.071 -11.256 9.608
34 34 1 0.0 15.000 -1.880 -50.000
35 35 1 0.0 -14.283 5.632 50.000
36 36 1 0.0 5.179 -8.480 -24.355
37 37 1 0.0 5.004 15.000 39.946
38 38 1 0.0 -15.000 15.000 -38.425
39 39 1 0.0 -14.160 1.166 36.088
40 40 1 0.0 -8.392 5.451 -5.113
41 41 1 0.0 -9.717 -8.327 -32.056
42 42 1 0.0 -14.299 15.002 10.601
43 43 1 0.0 6.187 11.953 -50.000
44 44 1 0.0 15.014 -6.111 -33.874
45 45 1 0.0 -15.003 -0.017 -37.801
46 46 1 0.0 7.667 12.833 27.359
47 47 1 0.0 -15.000 0.152 14.268
48 48 1 0.0 -1.300 -15.004 -17.061
49 49 1 0.0 15.001 13.923 35.485
50 50 1 0.0 15.000 -13.029 -13.931
51 51 1 0.0 -1.482 15.000 -0.296
52 52 1 0.0 -4.672 -1.657 -41.204
53 53 1 0.0 -3.005 15.006 -40.073
54 54 1 0.0 11.529 -7.252 -1.782
55 55 1 0.0 4.597 15.002 -32.123
56 56 1 0.0 -8.810 15.000 -13.087
57 57 1 0.0 15.000 -0.145 5.862
58 58 1 0.0 -4.836 -5.814 -7.309
59 59 1 0.0 -15.000 -15.000 -23.488
60 60 1 0.0 -15.000 13.512 -49.324
61 61 1 0.0 9.062 2.373 -30.187
62 62 1 0.0 -15.000 -5.317 0.234
63 63 1 0.0 -3.360 -15.000 49.998
64 64 1 0.0 -15.003 15.003 21.579
65 65 1 0.0 15.000 15.002 -20.509
66 66 1 0.0 -0.688 -8.945 -50.000
67 67 1 0.0 15.000 15.000 16.210
68 68 1 0.0 4.164 -5.889 -13.633
69 69 1 0.0 7.342 -12.453 50.002
70 70 1 0.0 -15.000 -10.675 47.068
71 71 1 0.0 -15.000 -15.000 -9.903
72 72 1 0.0 13.424 -15.001 -27.595
73 73 1 0.0 0.601 -0.884 10.198
74 74 1 0.0 8.486 6.613 13.344
75 75 1 0.0 7.224 8.280 -8.240
76 76 1 0.0 15.000 -11.388 35.275
77 77 1 0.0 -15.002 -4.011 25.740
78 78 1 0.0 -15.077 -3.976 -10.880
79 79 1 0.0 -15.001 2.892 -26.364
80 80 1 0.0 -8.781 4.216 -50.000
81 81 1 0.0 12.742 4.249 -19.992
82 82 1 0.0 9.232 0.968 39.173
83 83 1 0.0 -15.000 14.338 35.442
84 84 1 0.0 9.171 4.363 50.001
85 85 1 0.0 -10.382 -5.352 -20.733
86 86 1 0.0 11.967 15.000 49.816
87 87 1 0.0 11.344 -12.769 -50.000
88 88 1 0.0 1.405 -9.713 19.591
89 89 1 0.0 15.008 -6.188 45.209
90 90 1 0.0 15.000 -2.596 22.272
91 91 2 0.0 3.085 -12.113 24.418
92 91 2 0.0 3.922 -12.417 24.342
93 91 2 0.0 4.395 -11.814 23.885
94 91 2 0.0 5.298 -12.125 23.867
95 92 2 0.0 7.654 7.023 -19.952
96 92 2 0.0 7.029 6.384 -19.986
97 92 2 0.0 6.557 6.500 -20.734
98 92 2 0.0 5.937 5.776 -20.785
99 93 2 0.0 -2.072 6.674 19.580
100 93 2 0.0 -2.417 7.499 19.587
101 93 2 0.0 -3.301 7.430 19.491
102 93 2 0.0 -3.658 8.313 19.561
103 94 2 0.0 10.493 8.520 -24.627
104 94 2 0.0 10.919 7.992 -25.208
105 94 2 0.0 10.306 7.547 -25.678
106 94 2 0.0 10.775 7.035 -26.334
107 95 2 0.0 3.551 10.255 37.068
108 95 2 0.0 2.843 10.349 37.606
109 95 2 0.0 2.687 9.562 37.996
110 95 2 0.0 1.969 9.695 38.611
111 96 2 0.0 -2.479 -4.751 40.318
112 96 2 0.0 -3.239 -4.952 40.744
113 96 2 0.0 -3.414 -4.295 41.322
114 96 2 0.0 -4.256 -4.495 41.723
115 97 2 0.0 -7.405 8.138 -11.890
116 97 2 0.0 -7.263 7.276 -11.698
117 97 2 0.0 -7.944 6.804 -12.030
118 97 2 0.0 -7.748 5.884 -11.870
119 98 2 0.0 10.769 10.581 20.089
120 98 2 0.0 10.354 9.808 19.919
121 98 2 0.0 9.574 9.812 20.353
122 98 2 0.0 9.118 9.008 20.113
123 99 2 0.0 -11.447 -9.389 22.642
124 99 2 0.0 -11.016 -9.740 21.942
125 99 2 0.0 -11.015 -9.134 21.286
126 99 2 0.0 -10.501 -9.500 20.571
127 100 2 0.0 -5.689 10.492 -37.913
128 100 2 0.0 -6.100 10.497 -38.706
129 100 2 0.0 -5.775 9.821 -39.190
130 100 2 0.0 -6.267 9.803 -40.008
131 101 2 0.0 3.126 -12.255 -47.389
132 101 2 0.0 3.704 -12.585 -47.987
133 101 2 0.0 3.252 -12.773 -48.733
134 101 2 0.0 3.891 -13.066 -49.378
135 102 2 0.0 5.567 -10.592 11.950
136 102 2 0.0 5.510 -9.811 11.518
137 102 2 0.0 6.134 -9.266 11.850
138 102 2 0.0 6.100 -8.461 11.338
139 103 2 0.0 9.512 -4.965 48.129
140 103 2 0.0 9.168 -5.532 47.529
141 103 2 0.0 9.789 -6.144 47.339
142 103 2 0.0 9.385 -6.774 46.746
143 104 2 0.0 -13.942 -11.416 0.067
144 104 2 0.0 -13.239 -10.942 0.350
145 104 2 0.0 -12.506 -11.436 0.230
146 104 2 0.0 -11.761 -10.893 0.479
147 105 2 0.0 -9.638 -3.296 -12.198
148 105 2 0.0 -9.351 -2.463 -12.349
149 105 2 0.0 -10.066 -1.944 -12.474
150 105 2 0.0 -9.745 -1.050 -12.573
151 106 2 0.0 4.439 -2.686 -18.844
152 106 2 0.0 4.997 -2.619 -18.149
153 106 2 0.0 5.818 -2.823 -18.432
154 106 2 0.0 6.408 -2.688 -17.695
155 107 2 0.0 -0.974 -10.073 32.515
156 107 2 0.0 -0.754 -9.927 31.661
157 107 2 0.0 -0.225 -10.594 31.394
158 107 2 0.0 -0.050 -10.454 30.466
159 108 2 0.0 8.763 3.777 44.038
160 108 2 0.0 9.557 3.991 44.389
161 108 2 0.0 10.113 4.183 43.719
162 108 2 0.0 10.934 4.468 44.112
163 109 2 0.0 6.850 -11.100 2.554
164 109 2 0.0 6.846 -10.587 3.286
165 109 2 0.0 6.537 -11.076 3.965
166 109 2 0.0 6.597 -10.534 4.748
167 110 2 0.0 4.847 -5.338 13.035
168 110 2 0.0 5.605 -4.923 12.808
169 110 2 0.0 5.593 -4.108 13.171
170 110 2 0.0 6.433 -3.702 12.972
171 111 2 0.0 4.952 -8.345 -18.645
172 111 2 0.0 4.202 -8.806 -18.798
173 111 2 0.0 3.544 -8.223 -18.947
174 111 2 0.0 2.767 -8.731 -19.168
175 112 2 0.0 -13.467 3.966 -21.046
176 112 2 0.0 -13.281 4.498 -20.353
177 112 2 0.0 -12.395 4.588 -20.303
178 112 2 0.0 -12.218 5.206 -19.597
179 113 2 0.0 -0.790 7.589 39.798
180 113 2 0.0 -0.905 6.979 39.155
181 113 2 0.0 -1.507 6.386 39.441
182 113 2 0.0 -1.662 5.778 38.721
183 114 2 0.0 -4.065 -5.545 -14.382
184 114 2 0.0 -3.707 -6.230 -13.932
185 114 2 0.0 -4.350 -6.601 -13.437
186 114 2 0.0 -3.967 -7.366 -13.012
187 115 2 0.0 11.322 -0.787 -44.379
188 115 2 0.0 11.534 -0.697 -43.516
189 115 2 0.0 11.185 0.071 -43.224
190 115 2 0.0 11.369 0.121 -42.288
191 116 2 0.0 2.772 11.059 16.087
192 116 2 0.0 2.915 10.805 16.932
193 116 2 0.0 3.183 9.954 16.924
194 116 2 0.0 3.388 9.719 17.826
195 117 2 0.0 13.845 6.857 47.042
196 117 2 0.0 13.987 6.609 47.889
197 117 2 0.0 14.013 7.346 48.392
198 117 2 0.0 14.104 7.060 49.298
199 118 2 0.0 -7.155 0.401 13.544
200 118 2 0.0 -7.528 0.387 12.732
201 118 2 0.0 -7.104 -0.227 12.244
202 118 2 0.0 -7.553 -0.272 11.403
203 119 2 0.0 -0.389 0.765 -29.591
204 119 2 0.0 -1.262 0.845 -29.420
205 119 2 0.0 -1.709 0.403 -30.053
206 119 2 0.0 -2.634 0.447 -29.822
207 120 2 0.0 -0.234 11.628 13.038
208 120 2 0.0 -1.079 11.892 12.909
209 120 2 0.0 -1.075 12.775 12.780
210 120 2 0.0 -1.974 13.030 12.584
211 121 2 0.0 13.346 0.568 30.719
212 121 2 0.0 13.696 0.294 29.944
213 121 2 0.0 13.101 0.454 29.300
214 121 2 0.0 13.513 0.211 28.474
215 122 2 0.0 -1.009 -3.874 17.615
216 122 2 0.0 -0.312 -3.321 17.704
217 122 2 0.0 -0.234 -2.851 16.949
218 122 2 0.0 0.474 -2.225 17.083
219 123 2 0.0 -4.136 -10.498 25.062
220 123 2 0.0 -4.394 -9.888 25.662
221 123 2 0.0 -5.229 -10.080 25.910
222 123 2 0.0 -5.466 -9.456 26.593
223 124 2 0.0 -10.641 -14.777 -36.554
224 124 2 0.0 -10.450 -14.551 -35.711
225 124 2 0.0 -11.001 -15.000 -35.172
226 124 2 0.0 -10.743 -14.794 -34.277
227 125 2 0.0 8.956 -7.021 20.285
228 125 2 0.0 9.149 -6.700 19.474
229 125 2 0.0 8.681 -7.165 18.874
230 125 2 0.0 8.852 -6.770 18.021
231 126 2 0.0 3.414 13.199 15.629
232 126 2 0.0 3.176 12.816 14.858
233 126 2 0.0 3.213 13.437 14.218
234 126 2 0.0 3.015 12.999 13.394
235 127 2 0.0 -3.512 0.527 6.237
236 127 2 0.0 -4.042 0.258 6.905
237 127 2 0.0 -4.196 -0.614 6.802
238 127 2 0.0 -4.711 -0.896 7.555
239 128 2 0.0 -8.283 -9.949 47.275
240 128 2 0.0 -7.679 -9.794 46.635
241 128 2 0.0 -7.656 -10.507 46.098
242 128 2 0.0 -7.053 -10.301 45.388
243 129 2 0.0 -4.474 12.597 34.113
244 129 2 0.0 -4.648 11.721 34.081
245 129 2 0.0 -5.151 11.566 33.360
246 129 2 0.0 -5.277 10.621 33.308
247 130 2 0.0 -10.721 5.516 44.271
248 130 2 0.0 -10.428 5.992 44.968
249 130 2 0.0 -10.099 6.761 44.659
250 130 2 0.0 -9.847 7.281 45.419
251 131 2 0.0 12.048 1.980 -14.458
252 131 2 0.0 12.615 1.585 -15.025
253 131 2 0.0 12.388 0.725 -15.089
254 131 2 0.0 12.963 0.333 -15.742
255 132 2 0.0 4.482 -6.512 16.117
256 132 2 0.0 4.691 -5.667 16.322
257 132 2 0.0 5.482 -5.670 16.733
258 132 2 0.0 5.718 -4.758 16.889
259 133 2 0.0 1.740 2.542 24.906
260 133 2 0.0 1.685 3.010 24.146
261 133 2 0.0 1.893 2.466 23.471
262 133 2 0.0 1.771 2.963 22.665
263 134 2 0.0 15.000 4.905 -27.498
264 134 2 0.0 14.520 4.178 -27.301
265 134 2 0.0 14.408 4.152 -26.416
266 134 2 0.0 13.843 3.406 -26.229
267 135 2 0.0 -5.330 -13.711 -46.921
268 135 2 0.0 -4.617 -13.611 -47.450
269 135 2 0.0 -4.260 -14.417 -47.589
270 135 2 0.0 -3.539 -14.299 -48.203
271 136 2 0.0 -8.690 -3.962 5.979
272 136 2 0.0 -8.900 -4.079 5.119
273 136 2 0.0 -8.143 -4.209 4.665
274 136 2 0.0 -8.389 -4.393 3.761
275 137 2 0.0 -1.337 7.171 -4.351
276 137 2 0.0 -0.561 6.960 -4.741
277 137 2 0.0 -0.026 7.673 -4.696
278 137 2 0.0 0.816 7.412 -5.060
279 138 2 0.0 -7.138 -11.362 6.378
280 138 2 0.0 -6.904 -11.895 5.699
281 138 2 0.0 -7.238 -11.547 4.948
282 138 2 0.0 -6.929 -12.093 4.228
283 139 2 0.0 13.784 13.174 3.130
284 139 2 0.0 13.998 13.154 2.263
285 139 2 0.0 13.600 12.445 1.896
286 139 2 0.0 13.788 12.474 0.960
287 140 2 0.0 -0.251 6.587 12.406
288 140 2 0.0 -0.297 7.176 11.736
289 140 2 0.0 0.376 7.008 11.174
290 140 2 0.0 0.277 7.605 10.435
291 141 2 0.0 13.010 13.822 -48.183
292 141 2 0.0 13.350 13.565 -47.397
293 141 2 0.0 12.748 13.045 -46.993
294 141 2 0.0 13.150 12.732 -46.186
295 142 2 0.0 -6.113 8.552 47.392
296 142 2 0.0 -6.162 8.171 48.199
297 142 2 0.0 -6.959 7.778 48.271
298 142 2 0.0 -6.972 7.327 49.112
299 143 2 0.0 -13.752 -5.622 15.120
300 143 2 0.0 -12.999 -5.910 14.733
301 143 2 0.0 -12.309 -5.585 15.196
302 143 2 0.0 -11.517 -5.950 14.808
303 144 2 0.0 11.867 -12.298 39.872
304 144 2 0.0 11.090 -12.693 39.673
305 144 2 0.0 10.603 -12.737 40.420
306 144 2 0.0 9.756 -13.104 40.178
307 145 2 0.0 9.217 -2.155 -2.458
308 145 2 0.0 8.996 -1.311 -2.265
309 145 2 0.0 9.226 -0.799 -2.958
310 145 2 0.0 8.929 0.086 -2.760
311 146 2 0.0 3.812 10.858 -20.095
312 146 2 0.0 4.593 11.253 -19.914
313 146 2 0.0 4.469 12.136 -19.943
314 146 2 0.0 5.295 12.541 -19.689
315 147 2 0.0 13.942 14.768 -37.240
316 147 2 0.0 14.162 15.000 -38.074
317 147 2 0.0 14.410 14.262 -38.510
318 147 2 0.0 14.582 14.518 -39.414
319 148 2 0.0 8.654 14.979 -45.934
320 148 2 0.0 8.237 14.895 -45.148
321 148 2 0.0 7.360 14.842 -45.304
322 148 2 0.0 6.937 14.692 -44.462
323 149 2 0.0 -11.300 14.730 -4.867
324 149 2 0.0 -10.985 14.014 -4.435
325 149 2 0.0 -10.449 14.299 -3.782
326 149 2 0.0 -10.170 13.528 -3.294
327 150 2 0.0 12.230 10.387 -15.054
328 150 2 0.0 12.502 9.767 -15.638
329 150 2 0.0 11.926 9.758 -16.319
330 150 2 0.0 12.263 9.136 -16.959
331 151 2 0.0 4.044 6.045 41.210
332 151 2 0.0 3.627 5.851 41.977
333 151 2 0.0 4.220 5.924 42.640
334 151 2 0.0 3.745 5.774 43.454
335 152 2 0.0 0.729 -12.246 33.426
336 152 2 0.0 0.221 -12.298 32.692
337 152 2 0.0 0.615 -11.820 32.049
338 152 2 0.0 0.093 -11.936 31.258
339 153 2 0.0 4.389 2.183 -15.192
340 153 2 0.0 4.545 2.045 -16.061
341 153 2 0.0 5.113 2.673 -16.343
342 153 2 0.0 5.316 2.475 -17.254
343 154 2 0.0 -14.868 3.282 20.047
344 154 2 0.0 -14.428 2.551 20.313
345 154 2 0.0 -15.000 1.866 20.303
346 154 2 0.0 -14.501 1.084 20.529
347 155 2 0.0 -6.269 6.610 7.425
348 155 2 0.0 -6.660 7.047 8.099
349 155 2 0.0 -6.784 6.470 8.768
350 155 2 0.0 -7.146 6.965 9.499
351 156 2 0.0 1.426 9.575 -19.585
352 156 2 0.0 0.882 10.074 -19.082
353 156 2 0.0 0.438 10.629 -19.621
354 156 2 0.0 -0.181 11.110 -19.077
355 157 2 0.0 14.742 -7.311 5.302
356 157 2 0.0 14.190 -6.710 5.667
357 157 2 0.0 13.431 -7.127 5.882
358 157 2 0.0 12.878 -6.487 6.324
359 158 2 0.0 10.865 3.743 6.464
360 158 2 0.0 10.437 3.177 7.006
361 158 2 0.0 10.865 3.167 7.789
362 158 2 0.0 10.361 2.606 8.374
363 159 2 0.0 0.350 9.759 0.684
364 159 2 0.0 0.162 9.609 -0.177
365 159 2 0.0 0.898 9.774 -0.654
366 159 2 0.0 0.698 9.550 -1.560
367 160 2 0.0 3.573 2.135 -6.568
368 160 2 0.0 3.481 2.981 -6.842
369 160 2 0.0 2.624 3.210 -6.752
370 160 2 0.0 2.556 4.131 -6.991
371 161 2 0.0 -5.086 3.872 29.089
372 161 2 0.0 -5.119 4.205 28.260
373 161 2 0.0 -4.617 3.687 27.734
374 161 2 0.0 -4.711 4.020 26.845
375 162 2 0.0 13.427 -3.812 -38.924
376 162 2 0.0 13.234 -4.470 -39.498
377 162 2 0.0 12.811 -5.114 -39.048
378 162 2 0.0 12.560 -5.779 -39.685
379 163 2 0.0 -4.557 0.938 -8.946
380 163 2 0.0 -3.948 0.653 -8.357
381 163 2 0.0 -3.375 1.320 -8.207
382 163 2 0.0 -2.770 1.021 -7.532
383 164 2 0.0 -4.619 -9.846 43.073
384 164 2 0.0 -3.875 -10.049 43.526
385 164 2 0.0 -3.953 -9.712 44.348
386 164 2 0.0 -3.180 -9.990 44.836
387 165 2 0.0 -12.742 15.000 27.485
388 165 2 0.0 -12.782 14.108 27.456
389 165 2 0.0 -13.436 13.842 28.001
390 165 2 0.0 -13.504 12.894 27.912
391 166 2 0.0 -5.365 10.096 -17.361
392 166 2 0.0 -5.974 10.360 -17.959
393 166 2 0.0 -5.546 10.589 -18.708
394 166 2 0.0 -6.213 10.810 -19.354
395 167 2 0.0 12.596 -10.219 30.003
396 167 2 0.0 11.754 -9.918 30.014
397 167 2 0.0 11.469 -9.927 30.859
398 167 2 0.0 10.593 -9.548 30.861
399 168 2 0.0 -1.906 3.915 -44.759
400 168 2 0.0 -1.879 4.025 -45.645
401 168 2 0.0 -1.506 3.298 -46.003
402 168 2 0.0 -1.540 3.405 -46.951
403 169 2 0.0 0.750 10.915 -26.003
404 169 2 0.0 0.690 10.448 -26.763
405 169 2 0.0 1.065 9.650 -26.627
406 169 2 0.0 0.939 9.144 -27.427
407 170 2 0.0 -5.764 -10.175 26.592
408 170 2 0.0 -5.910 -9.974 25.734
409 170 2 0.0 -5.188 -10.213 25.267
410 170 2 0.0 -5.384 -10.047 24.348
411 171 2 0.0 -8.127 -10.402 5.114
412 171 2 0.0 -7.604 -9.741 5.414
413 171 2 0.0 -7.874 -9.527 6.237
414 171 2 0.0 -7.270 -8.865 6.564
415 172 2 0.0 -4.598 2.470 14.758
416 172 2 0.0 -4.282 3.114 15.292
417 172 2 0.0 -3.443 2.905 15.511
418 172 2 0.0 -3.102 3.630 16.029
419 173 2 0.0 3.637 8.783 9.487
420 173 2 0.0 3.567 9.448 10.080
421 173 2 0.0 4.385 9.770 10.232
422 173 2 0.0 4.286 10.517 10.818
423 174 2 0.0 1.007 11.880 -44.141
424 174 2 0.0 1.819 12.120 -43.855
425 174 2 0.0 1.871 11.936 -42.983
426 174 2 0.0 2.762 12.141 -42.709
427 175 2 0.0 -3.426 6.276 27.776
428 175 2 0.0 -3.625 5.755 27.077
429 175 2 0.0 -4.198 6.198 26.556
430 175 2 0.0 -4.351 5.654 25.787
431 176 2 0.0 -2.224 -2.663 -26.082
432 176 2 0.0 -2.802 -2.991 -25.483
433 176 2 0.0 -3.466 -2.404 -25.389
434 176 2 0.0 -4.102 -2.796 -24.795
435 177 2 0.0 -3.030 -10.137 -10.537
436 177 2 0.0 -3.684 -9.852 -11.075
437 177 2 0.0 -3.359 -9.189 -11.577
438 177 2 0.0 -4.050 -8.937 -12.185
439 178 2 0.0 -0.262 1.176 -44.001
440 178 2 0.0 -0.560 0.730 -44.716
441 178 2 0.0 -0.922 1.320 -45.279
442 178 2 0.0 -1.180 0.836 -46.060
443 179 2 0.0 3.867 -0.604 30.361
444 179 2 0.0 3.728 0.238 30.626
445 179 2 0.0 3.541 0.227 31.498
446 179 2 0.0 3.455 1.136 31.776
447 180 2 0.0 -9.482 -12.211 -12.216
448 180 2 0.0 -10.078 -12.368 -12.863
449 180 2 0.0 -9.650 -12.347 -13.646
450 180 2 0.0 -10.288 -12.577 -14.318
451 181 2 0.0 9.624 12.147 -35.000
452 181 2 0.0 9.626 12.688 -35.711
453 181 2 0.0 9.336 12.222 -36.414
454 181 2 0.0 9.287 12.829 -37.149
455 182 2 0.0 -13.111 9.512 -28.011
456 182 2 0.0 -13.187 9.457 -28.900
457 182 2 0.0 -13.051 8.607 -29.137
458 182 2 0.0 -13.196 8.555 -30.078
459 183 2 0.0 -0.596 -2.506 18.622
460 183 2 0.0 -0.035 -3.141 18.907
461 183 2 0.0 0.046 -3.061 19.792
462 183 2 0.0 0.597 -3.782 20.087
463 184 2 0.0 -12.542 8.940 -26.740
464 184 2 0.0 -12.801 8.828 -27.588
465 184 2 0.0 -12.265 9.318 -28.107
466 184 2 0.0 -12.516 9.140 -29.011
467 185 2 0.0 -8.134 6.617 -44.384
468 185 2 0.0 -8.781 7.100 -44.767
469 185 2 0.0 -8.403 7.807 -45.160
470 185 2 0.0 -9.098 8.277 -45.614
471 186 2 0.0 3.867 -2.999 -2.830
472 186 2 0.0 3.754 -3.608 -2.186
473 186 2 0.0 4.050 -3.259 -1.420
474 186 2 0.0 3.866 -3.897 -0.734
475 187 2 0.0 -3.893 0.177 -4.340
476 187 2 0.0 -4.025 0.676 -3.610
477 187 2 0.0 -4.755 0.375 -3.197
478 187 2 0.0 -4.846 0.878 -2.391
479 188 2 0.0 4.063 14.927 -12.307
480 188 2 0.0 3.629 15.000 -11.529
481 188 2 0.0 4.211 14.842 -10.871
482 188 2 0.0 3.746 14.983 -10.050
483 189 2 0.0 -9.230 -0.004 30.197
484 189 2 0.0 -9.482 -0.296 31.004
485 189 2 0.0 -9.067 -1.070 31.159
486 189 2 0.0 -9.299 -1.336 32.046
487 190 2 0.0 11.049 6.754 42.492
488 190 2 0.0 11.411 7.250 43.142
489 190 2 0.0 11.178 6.891 43.925
490 190 2 0.0 11.621 7.395 44.604
491 191 2 0.0 12.694 -5.038 27.595
492 191 2 0.0 13.221 -4.746 28.255
493 191 2 0.0 12.719 -4.269 28.819
494 191 2 0.0 13.283 -4.017 29.547
495 192 2 0.0 7.450 -2.311 2.340
496 192 2 0.0 7.698 -1.968 1.552
497 192 2 0.0 7.642 -2.614 0.939
498 192 2 0.0 7.850 -2.217 0.097
499 193 2 0.0 -6.780 1.738 47.890
500 193 2 0.0 -6.739 0.884 48.150
501 193 2 0.0 -7.240 0.793 48.883
502 193 2 0.0 -7.234 -0.133 49.111
503 194 2 0.0 5.927 -2.760 9.963
504 194 2 0.0 6.242 -2.846 9.131
505 194 2 0.0 5.583 -3.157 8.616
506 194 2 0.0 5.918 -3.185 7.723
507 195 2 0.0 -0.329 13.124 -29.784
508 195 2 0.0 -0.315 12.597 -29.062
509 195 2 0.0 -0.344 11.749 -29.338
510 195 2 0.0 -0.266 11.201 -28.560
511 196 2 0.0 -6.202 4.696 -36.617
512 196 2 0.0 -5.380 5.008 -36.779
513 196 2 0.0 -5.172 5.586 -36.132
514 196 2 0.0 -4.272 5.863 -36.285
515 197 2 0.0 14.332 3.675 47.838
516 197 2 0.0 14.832 3.267 47.220
517 197 2 0.0 14.305 2.712 46.761
518 197 2 0.0 14.839 2.331 46.068
519 198 2 0.0 1.657 13.740 9.025
520 198 2 0.0 1.799 13.402 8.210
521 198 2 0.0 1.141 13.681 7.676
522 198 2 0.0 1.340 13.363 6.799
523 199 2 0.0 13.876 7.213 19.618
524 199 2 0.0 13.215 6.991 19.059
525 199 2 0.0 13.431 7.288 18.245
526 199 2 0.0 12.745 6.991 17.651
527 200 2 0.0 -6.185 -10.152 9.417
528 200 2 0.0 -6.004 -10.362 8.568
529 200 2 0.0 -6.292 -9.695 8.050
530 200 2 0.0 -6.036 -9.906 7.155
531 201 2 0.0 3.618 0.467 39.266
532 201 2 0.0 2.965 0.292 38.681
533 201 2 0.0 3.080 0.822 37.973
534 201 2 0.0 2.413 0.581 37.334
535 202 2 0.0 -1.623 8.369 -40.567
536 202 2 0.0 -1.343 8.528 -39.734
537 202 2 0.0 -1.496 9.388 -39.550
538 202 2 0.0 -1.248 9.526 -38.639
539 203 2 0.0 4.246 -6.767 -45.749
540 203 2 0.0 3.557 -6.288 -46.056
541 203 2 0.0 3.239 -5.797 -45.382
542 203 2 0.0 2.546 -5.248 -45.742
543 204 2 0.0 -2.338 -6.777 25.330
544 204 2 0.0 -2.446 -7.304 26.043
545 204 2 0.0 -2.302 -6.814 26.774
546 204 2 0.0 -2.481 -7.375 27.525
547 205 2 0.0 -8.695 -10.110 0.727
548 205 2 0.0 -8.518 -9.835 -0.105
549 205 2 0.0 -8.927 -9.052 -0.230
550 205 2 0.0 -8.679 -8.745 -1.099
551 206 2 0.0 2.701 8.508 44.834
552 206 2 0.0 2.229 8.969 44.231
553 206 2 0.0 1.363 8.850 44.409
554 206 2 0.0 0.876 9.396 43.795
555 207 2 0.0 -1.413 9.872 -23.825
556 207 2 0.0 -1.456 9.796 -22.936
557 207 2 0.0 -2.293 9.977 -22.683
558 207 2 0.0 -2.336 9.832 -21.740
559 208 2 0.0 -9.676 -1.060 48.369
560 208 2 0.0 -9.685 -0.607 47.599
561 208 2 0.0 -9.735 -1.198 46.932
562 208 2 0.0 -9.806 -0.697 46.122
563 209 2 0.0 -4.878 -9.037 -16.022
564 209 2 0.0 -5.532 -8.454 -15.844
565 209 2 0.0 -5.883 -8.666 -15.052
566 209 2 0.0 -6.536 -7.999 -14.850
567 210 2 0.0 -11.851 6.906 18.879
568 210 2 0.0 -11.491 7.139 19.663
569 210 2 0.0 -12.148 7.184 20.266
570 210 2 0.0 -11.740 7.373 21.107
571 211 2 0.0 3.646 8.210 -20.899
572 211 2 0.0 3.770 8.348 -21.773
573 211 2 0.0 4.314 9.049 -21.869
574 211 2 0.0 4.483 9.144 -22.803
575 212 2 0.0 11.087 9.879 20.326
576 212 2 0.0 11.814 9.390 20.505
577 212 2 0.0 12.102 9.611 21.320
578 212 2 0.0 12.839 9.038 21.518
579 213 2 0.0 -8.938 8.064 -45.681
580 213 2 0.0 -9.264 7.498 -45.071
581 213 2 0.0 -10.154 7.523 -45.118
582 213 2 0.0 -10.484 6.871 -44.504
583 214 2 0.0 14.903 -1.243 48.389
584 214 2 0.0 14.105 -0.948 48.665
585 214 2 0.0 14.162 -0.066 48.783
586 214 2 0.0 13.289 0.240 49.019
587 215 2 0.0 -10.571 14.229 -2.669
588 215 2 0.0 -10.425 13.858 -3.469
589 215 2 0.0 -10.570 14.480 -4.092
590 215 2 0.0 -10.351 14.086 -4.934
591 216 2 0.0 -9.792 -8.500 30.378
592 216 2 0.0 -9.639 -7.969 29.676
593 216 2 0.0 -9.557 -8.484 28.952
594 216 2 0.0 -9.456 -7.899 28.204
595 217 2 0.0 7.272 0.261 28.494
596 217 2 0.0 6.760 0.377 29.217
597 217 2 0.0 7.237 0.145 29.934
598 217 2 0.0 6.698 0.333 30.699
599 218 2 0.0 -1.382 4.058 47.561
600 218 2 0.0 -2.170 4.136 47.976
601 218 2 0.0 -2.386 5.001 47.998
602 218 2 0.0 -3.255 5.061 48.388
603 219 2 0.0 -6.358 -12.822 -32.608
604 219 2 0.0 -6.882 -13.531 -32.753
605 219 2 0.0 -6.357 -14.244 -32.865
606 219 2 0.0 -6.932 -15.000 -32.958
607 220 2 0.0 -13.318 5.310 -41.676
608 220 2 0.0 -13.085 5.233 -40.816
609 220 2 0.0 -12.978 6.054 -40.484
610 220 2 0.0 -12.790 5.956 -39.554
611 221 2 0.0 5.467 -5.438 12.929
612 221 2 0.0 4.747 -5.250 13.423
613 221 2 0.0 4.965 -5.355 14.282
614 221 2 0.0 4.205 -5.093 14.796
615 222 2 0.0 2.401 11.371 -44.616
616 222 2 0.0 1.649 10.894 -44.687
617 222 2 0.0 1.163 11.242 -45.350
618 222 2 0.0 0.394 10.686 -45.452
619 223 2 0.0 3.986 3.191 17.881
620 223 2 0.0 3.664 2.859 17.116
621 223 2 0.0 3.911 3.403 16.453
622 223 2 0.0 3.611 3.003 15.639
623 224 2 0.0 -0.144 7.572 -28.777
624 224 2 0.0 0.474 7.658 -29.417
625 224 2 0.0 1.268 7.458 -29.062
626 224 2 0.0 1.906 7.496 -29.771
627 225 2 0.0 10.053 8.686 -28.070
628 225 2 0.0 10.036 8.968 -28.918
629 225 2 0.0 9.889 9.848 -28.914
630 225 2 0.0 9.934 10.142 -29.821
631 226 2 0.0 10.905 1.126 -45.977
632 226 2 0.0 11.072 1.459 -45.165
633 226 2 0.0 10.633 2.233 -45.088
634 226 2 0.0 10.773 2.544 -44.197
635 227 2 0.0 0.457 -9.778 -6.022
636 227 2 0.0 1.281 -9.618 -6.330
637 227 2 0.0 1.288 -9.793 -7.205
638 227 2 0.0 2.156 -9.559 -7.527
639 228 2 0.0 2.725 11.045 6.484
640 228 2 0.0 2.495 11.696 7.052
641 228 2 0.0 2.663 12.479 6.658
642 228 2 0.0 2.356 13.160 7.252
643 229 2 0.0 6.899 3.782 23.526
644 229 2 0.0 6.106 4.147 23.334
645 229 2 0.0 5.852 4.640 24.033
646 229 2 0.0 5.036 5.070 23.788
647 230 2 0.0 6.567 -14.019 -46.084
648 230 2 0.0 7.373 -14.133 -45.713
649 230 2 0.0 7.692 -14.922 -45.981
650 230 2 0.0 8.574 -15.000 -45.626
651 231 2 0.0 3.183 3.832 15.480
652 231 2 0.0 2.916 3.216 16.070
653 231 2 0.0 2.891 2.427 15.653
654 231 2 0.0 2.663 1.773 16.310
655 232 2 0.0 -10.230 1.047 -12.375
656 232 2 0.0 -10.597 0.756 -13.137
657 232 2 0.0 -9.940 0.621 -13.726
658 232 2 0.0 -10.341 0.254 -14.510
659 233 2 0.0 14.327 10.200 7.493
660 233 2 0.0 14.726 9.463 7.182
661 233 2 0.0 14.377 9.276 6.382
662 233 2 0.0 14.855 8.524 6.039
663 234 2 0.0 -4.659 6.364 -20.300
664 234 2 0.0 -4.042 5.922 -19.828
665 234 2 0.0 -3.239 6.225 -20.070
666 234 2 0.0 -2.598 5.787 -19.514
667 235 2 0.0 15.000 -7.597 -6.210
668 235 2 0.0 14.910 -7.420 -7.082
669 235 2 0.0 14.998 -6.539 -7.195
670 235 2 0.0 14.961 -6.374 -8.134
671 236 2 0.0 8.905 2.745 26.899
672 236 2 0.0 8.727 2.287 26.153
673 236 2 0.0 8.750 2.857 25.466
674 236 2 0.0 8.618 2.342 24.674
675 237 2 0.0 -5.466 4.469 15.958
676 237 2 0.0 -6.242 4.647 15.553
677 237 2 0.0 -6.083 5.219 14.888
678 237 2 0.0 -6.909 5.350 14.430
679 238 2 0.0 -3.570 4.982 -1.138
680 238 2 0.0 -3.628 4.926 -2.028
681 238 2 0.0 -2.972 5.417 -2.379
682 238 2 0.0 -3.011 5.298 -3.325
683 239 2 0.0 -3.439 0.125 -47.271
684 239 2 0.0 -3.009 0.422 -47.996
685 239 2 0.0 -3.339 -0.005 -48.707
686 239 2 0.0 -2.913 0.367 -49.476
687 240 2 0.0 12.169 -10.702 3.443
688 240 2 0.0 12.603 -10.245 4.076
689 240 2 0.0 13.478 -10.313 3.916
690 240 2 0.0 13.922 -9.771 4.563
691 241 2 0.0 12.534 -2.070 -25.535
692 241 2 0.0 12.105 -2.752 -25.921
693 241 2 0.0 11.970 -3.380 -25.302
694 241 2 0.0 11.460 -4.072 -25.714
695 242 2 0.0 1.827 9.667 -43.130
696 242 2 0.0 2.490 9.577 -43.724
697 242 2 0.0 2.689 10.386 -44.041
698 242 2 0.0 3.436 10.279 -44.625
699 243 2 0.0 0.664 8.771 17.180
700 243 2 0.0 0.296 8.410 16.449
701 243 2 0.0 0.951 8.229 15.871
702 243 2 0.0 0.549 7.791 15.124
703 244 2 0.0 -4.148 10.509 -7.345
704 244 2 0.0 -3.927 10.201 -8.155
705 244 2 0.0 -3.983 10.879 -8.732
706 244 2 0.0 -3.686 10.549 -9.577
707 245 2 0.0 -8.062 -6.115 -38.020
708 245 2 0.0 -7.815 -6.760 -37.453
709 245 2 0.0 -6.928 -6.724 -37.362
710 245 2 0.0 -6.689 -7.378 -36.709
711 246 2 0.0 -13.362 0.861 30.455
712 246 2 0.0 -13.761 1.616 30.191
713 246 2 0.0 -14.606 1.597 30.476
714 246 2 0.0 -14.999 2.434 30.239
715 247 2 0.0 -12.290 -4.538 36.411
716 247 2 0.0 -12.514 -4.917 37.188
717 247 2 0.0 -11.940 -5.582 37.348
718 247 2 0.0 -12.155 -5.935 38.208
719 248 2 0.0 9.902 -0.832 -39.936
720 248 2 0.0 10.679 -1.254 -40.071
721 248 2 0.0 11.283 -0.904 -39.515
722 248 2 0.0 12.088 -1.404 -39.629
723 249 2 0.0 -1.749 9.871 39.841
724 249 2 0.0 -1.860 9.559 40.671
725 249 2 0.0 -1.520 8.735 40.705
726 249 2 0.0 -1.591 8.441 41.610
727 250 2 0.0 2.416 5.726 12.646
728 250 2 0.0 2.688 5.460 11.838
729 250 2 0.0 3.087 6.151 11.439
730 250 2 0.0 3.424 5.834 10.604
731 251 2 0.0 2.254 9.858 -44.885
732 251 2 0.0 2.282 9.469 -44.081
733 251 2 0.0 1.739 9.922 -43.536
734 251 2 0.0 1.734 9.458 -42.701
735 252 2 0.0 3.715 11.220 -41.812
736 252 2 0.0 4.082 11.221 -42.627
737 252 2 0.0 4.245 10.374 -42.858
738 252 2 0.0 4.579 10.390 -43.752
739 253 2 0.0 -1.268 7.308 -29.464
740 253 2 0.0 -1.375 6.599 -29.997
741 253 2 0.0 -0.565 6.288 -30.210
742 253 2 0.0 -0.698 5.498 -30.728
743 254 2 0.0 7.096 7.139 20.886
744 254 2 0.0 7.933 6.910 21.099
745 254 2 0.0 8.410 7.658 21.188
746 254 2 0.0 9.283 7.399 21.473
747 255 2 0.0 14.654 13.050 28.577
748 255 2 0.0 14.274 12.243 28.526
749 255 2 0.0 14.850 11.645 28.852
750 255 2 0.0 14.406 10.800 28.847
751 256 2 0.0 8.981 -13.245 15.600
752 256 2 0.0 8.720 -12.968 16.409
753 256 2 0.0 8.896 -13.619 16.993
754 256 2 0.0 8.668 -13.285 17.858
755 257 2 0.0 -1.898 -0.266 15.829
756 257 2 0.0 -1.921 0.593 16.076
757 257 2 0.0 -2.181 1.076 15.372
758 257 2 0.0 -2.258 1.980 15.668
759 258 2 0.0 13.451 11.434 1.848
760 258 2 0.0 13.469 11.515 0.958
761 258 2 0.0 13.781 10.752 0.617
762 258 2 0.0 13.736 10.834 -0.333
763 259 2 0.0 -1.476 -10.099 -10.516
764 259 2 0.0 -1.997 -10.512 -11.114
765 259 2 0.0 -1.517 -10.646 -11.854
766 259 2 0.0 -2.067 -11.141 -12.456
767 260 2 0.0 -13.980 -1.944 8.730
768 260 2 0.0 -13.848 -2.291 7.917
769 260 2 0.0 -13.783 -1.616 7.336
770 260 2 0.0 -13.582 -2.000 6.486
771 261 2 0.0 -11.686 7.069 -28.559
772 261 2 0.0 -11.508 7.114 -27.684
773 261 2 0.0 -10.758 7.585 -27.578
774 261 2 0.0 -10.617 7.675 -26.638
775 262 2 0.0 -2.052 1.253 -35.022
776 262 2 0.0 -1.280 1.570 -34.701
777 262 2 0.0 -0.627 1.323 -35.257
778 262 2 0.0 0.178 1.720 -34.934
779 263 2 0.0 -11.447 -12.817 -35.811
780 263 2 0.0 -12.148 -12.397 -36.172
781 263 2 0.0 -11.877 -11.592 -36.446
782 263 2 0.0 -12.621 -11.182 -36.882
783 264 2 0.0 14.334 -3.560 12.063
784 264 2 0.0 13.539 -3.547 11.655
785 264 2 0.0 13.507 -2.822 11.135
786 264 2 0.0 12.679 -2.856 10.661
787 265 2 0.0 -3.412 -8.350 15.302
788 265 2 0.0 -2.919 -9.094 15.249
789 265 2 0.0 -3.284 -9.707 15.785
790 265 2 0.0 -2.781 -10.510 15.671
791 266 2 0.0 14.831 -8.903 -7.300
792 266 2 0.0 14.429 -9.654 -7.571
793 266 2 0.0 14.619 -9.774 -8.434
794 266 2 0.0 14.235 -10.609 -8.691
795 267 2 0.0 8.174 -11.143 34.016
796 267 2 0.0 8.179 -12.019 34.194
797 267 2 0.0 8.691 -12.152 34.912
798 267 2 0.0 8.637 -13.081 35.123
799 268 2 0.0 12.683 -11.322 45.313
800 268 2 0.0 12.675 -11.227 46.202
801 268 2 0.0 13.445 -11.545 46.520
802 268 2 0.0 13.446 -11.381 47.461
803 269 2 0.0 2.888 -12.276 -20.744
804 269 2 0.0 2.083 -11.962 -20.515
805 269 2 0.0 1.692 -11.640 -21.250
806 269 2 0.0 0.813 -11.365 -20.999
807 270 2 0.0 -3.341 -7.796 24.029
808 270 2 0.0 -3.043 -7.820 23.187
809 270 2 0.0 -3.481 -7.197 22.721
810 270 2 0.0 -3.109 -7.195 21.842
811 271 2 0.0 5.521 -9.585 -6.450
812 271 2 0.0 5.494 -10.179 -7.118
813 271 2 0.0 5.074 -9.799 -7.808
814 271 2 0.0 5.107 -10.422 -8.530
815 272 2 0.0 6.098 -4.570 30.048
816 272 2 0.0 6.687 -3.898 30.013
817 272 2 0.0 6.541 -3.443 29.259
818 272 2 0.0 7.136 -2.696 29.267
819 273 2 0.0 -6.625 -1.918 30.865
820 273 2 0.0 -7.235 -1.352 30.541
821 273 2 0.0 -7.423 -0.754 31.176
822 273 2 0.0 -8.028 -0.123 30.794
823 274 2 0.0 -8.655 -12.783 -12.983
824 274 2 0.0 -9.397 -12.715 -12.489
825 274 2 0.0 -9.159 -12.741 -11.629
826 274 2 0.0 -9.953 -12.606 -11.117
827 275 2 0.0 3.238 -12.231 28.599
828 275 2 0.0 3.366 -13.110 28.697
829 275 2 0.0 2.598 -13.473 28.970
830 275 2 0.0 2.735 -14.417 29.011
831 276 2 0.0 6.335 1.021 -45.140
832 276 2 0.0 5.730 1.677 -45.198
833 276 2 0.0 5.060 1.485 -44.641
834 276 2 0.0 4.454 2.222 -44.670
835 277 2 0.0 8.848 3.433 -48.989
836 277 2 0.0 9.422 2.996 -48.461
837 277 2 0.0 9.184 3.143 -47.613
838 277 2 0.0 9.768 2.621 -47.067
839 278 2 0.0 -1.367 -3.744 27.690
840 278 2 0.0 -1.304 -4.312 28.377
841 278 2 0.0 -1.930 -4.095 28.975
842 278 2 0.0 -1.888 -4.747 29.671
843 279 2 0.0 6.687 -0.571 17.685
844 279 2 0.0 7.554 -0.740 17.818
845 279 2 0.0 7.966 -0.717 17.027
846 279 2 0.0 8.897 -0.839 17.194
847 280 2 0.0 -10.115 7.305 17.152
848 280 2 0.0 -9.943 6.977 16.339
849 280 2 0.0 -10.435 7.431 15.748
850 280 2 0.0 -10.195 7.110 14.882
851 281 2 0.0 -3.681 -2.966 -24.669
852 281 2 0.0 -3.198 -3.504 -24.143
853 281 2 0.0 -3.152 -3.131 -23.334
854 281 2 0.0 -2.687 -3.746 -22.771
855 282 2 0.0 -6.413 3.282 -20.755
856 282 2 0.0 -6.407 3.311 -21.648
857 282 2 0.0 -6.579 4.150 -21.898
858 282 2 0.0 -6.509 4.176 -22.850
859 283 2 0.0 -4.188 -3.111 -25.885
860 283 2 0.0 -4.623 -3.321 -25.133
861 283 2 0.0 -4.050 -3.249 -24.453
862 283 2 0.0 -4.544 -3.417 -23.654
863 284 2 0.0 10.000 3.374 -8.183
864 284 2 0.0 9.904 2.901 -8.935
865 284 2 0.0 9.858 3.473 -9.618
866 284 2 0.0 9.817 2.951 -10.416
867 285 2 0.0 -0.451 -14.886 -24.597
868 285 2 0.0 -0.645 -14.157 -24.117
869 285 2 0.0 0.039 -13.999 -23.566
870 285 2 0.0 -0.156 -13.186 -23.107
871 286 2 0.0 14.996 5.448 -30.845
872 286 2 0.0 14.896 4.647 -31.229
873 286 2 0.0 14.862 4.033 -30.583
874 286 2 0.0 14.694 3.194 -31.005
875 287 2 0.0 14.581 -0.892 -22.062
876 287 2 0.0 14.448 -0.497 -22.852
877 287 2 0.0 15.000 -0.871 -23.445
878 287 2 0.0 14.802 -0.481 -24.294
879 288 2 0.0 8.496 -10.066 36.024
880 288 2 0.0 8.462 -9.502 36.716
881 288 2 0.0 8.676 -9.957 37.453
882 288 2 0.0 8.695 -9.328 38.172
883 289 2 0.0 13.778 -10.644 -38.370
884 289 2 0.0 13.965 -11.341 -37.843
885 289 2 0.0 14.439 -11.042 -37.148
886 289 2 0.0 14.578 -11.785 -36.566
887 290 2 0.0 -14.576 1.820 -3.707
888 290 2 0.0 -14.882 2.172 -2.944
889 290 2 0.0 -14.517 1.721 -2.266
890 290 2 0.0 -14.806 2.148 -1.462
891 291 2 0.0 -5.023 -3.923 9.448
892 291 2 0.0 -4.615 -3.458 10.094
893 291 2 0.0 -5.110 -3.520 10.834
894 291 2 0.0 -4.632 -3.071 11.527
895 292 2 0.0 0.020 0.214 33.384
896 292 2 0.0 0.272 0.341 32.535
897 292 2 0.0 -0.461 0.493 32.049
898 292 2 0.0 -0.170 0.686 31.161
899 293 2 0.0 -3.485 -13.497 -11.458
900 293 2 0.0 -3.016 -12.789 -11.182
901 293 2 0.0 -3.170 -12.117 -11.749
902 293 2 0.0 -2.711 -11.353 -11.406
903 294 2 0.0 -6.565 0.208 31.605
904 294 2 0.0 -6.109 0.220 30.836
905 294 2 0.0 -5.243 0.313 31.029
906 294 2 0.0 -4.767 0.262 30.203
907 295 2 0.0 -2.574 -7.636 29.690
908 295 2 0.0 -3.146 -7.844 29.035
909 295 2 0.0 -3.564 -7.097 28.785
910 295 2 0.0 -4.124 -7.326 28.047
911 296 2 0.0 5.282 12.154 -44.086
912 296 2 0.0 5.173 12.440 -43.246
913 296 2 0.0 4.298 12.529 -43.096
914 296 2 0.0 4.198 12.775 -42.179
915 297 2 0.0 7.439 -7.268 -29.532
916 297 2 0.0 7.642 -7.384 -30.395
917 297 2 0.0 7.846 -6.587 -30.740
918 297 2 0.0 8.118 -6.738 -31.643
919 298 2 0.0 7.735 1.989 1.193
920 298 2 0.0 8.008 1.721 2.001
921 298 2 0.0 7.857 0.845 2.067
922 298 2 0.0 8.209 0.565 2.909
923 299 2 0.0 14.077 11.594 5.269
924 299 2 0.0 14.164 11.045 5.969
925 299 2 0.0 13.887 10.234 5.721
926 299 2 0.0 14.043 9.650 6.459
927 300 2 0.0 -1.572 12.221 -15.604
928 300 2 0.0 -1.662 13.110 -15.632
929 300 2 0.0 -0.864 13.474 -15.469
930 300 2 0.0 -0.965 14.419 -15.563
931 301 2 0.0 -14.628 11.118 -5.673
932 301 2 0.0 -14.631 10.341 -5.230
933 301 2 0.0 -14.932 10.496 -4.404
934 301 2 0.0 -14.986 9.650 -3.966
935 302 2 0.0 5.049 11.751 -40.331
936 302 2 0.0 4.677 12.081 -39.588
937 302 2 0.0 5.207 12.728 -39.277
938 302 2 0.0 4.767 13.109 -38.521
939 303 2 0.0 -5.742 2.975 -9.481
940 303 2 0.0 -5.498 2.330 -8.912
941 303 2 0.0 -4.749 2.592 -8.503
942 303 2 0.0 -4.537 1.922 -7.857
943 304 2 0.0 6.369 -4.207 12.008
944 304 2 0.0 5.947 -4.698 12.623
945 304 2 0.0 5.800 -4.182 13.336
946 304 2 0.0 5.296 -4.703 13.957
947 305 2 0.0 -9.178 -3.649 -36.043
948 305 2 0.0 -9.837 -3.968 -36.555
949 305 2 0.0 -9.643 -3.781 -37.406
950 305 2 0.0 -10.324 -4.180 -37.941
951 306 2 0.0 -5.685 5.278 24.265
952 306 2 0.0 -5.190 5.965 23.978
953 306 2 0.0 -4.820 5.734 23.200
954 306 2 0.0 -4.347 6.498 22.879
955 307 2 0.0 4.036 -4.112 -4.015
956 307 2 0.0 3.231 -3.725 -4.032
957 307 2 0.0 2.984 -3.639 -4.886
958 307 2 0.0 2.099 -3.282 -4.884
959 308 2 0.0 7.145 13.817 -12.545
960 308 2 0.0 6.701 14.486 -12.938
961 308 2 0.0 6.652 14.309 -13.811
962 308 2 0.0 6.124 15.000 -14.205
963 309 2 0.0 -8.068 6.767 1.629
964 309 2 0.0 -8.436 7.265 0.985
965 309 2 0.0 -9.139 7.692 1.332
966 309 2 0.0 -9.482 8.264 0.649
967 310 2 0.0 10.848 7.446 38.315
968 310 2 0.0 10.180 8.038 38.362
969 310 2 0.0 9.502 7.729 37.872
970 310 2 0.0 8.778 8.341 37.982
971 311 2 0.0 7.528 -12.653 -19.905
972 311 2 0.0 6.677 -12.894 -19.777
973 311 2 0.0 6.199 -12.597 -20.471
974 311 2 0.0 5.307 -12.914 -20.349
975 312 2 0.0 10.127 2.806 20.025
976 312 2 0.0 10.742 2.764 19.378
977 312 2 0.0 10.757 1.928 19.065
978 312 2 0.0 11.373 1.915 18.336
979 313 2 0.0 1.697 2.623 19.256
980 313 2 0.0 1.949 2.850 20.084
981 313 2 0.0 1.226 2.832 20.607
982 313 2 0.0 1.522 3.017 21.495
983 314 2 0.0 8.489 -11.100 42.582
984 314 2 0.0 8.493 -11.540 43.360
985 314 2 0.0 9.153 -11.208 43.861
986 314 2 0.0 9.105 -11.645 44.708
987 315 2 0.0 -10.385 13.379 -21.206
988 315 2 0.0 -10.059 12.956 -21.922
989 315 2 0.0 -10.741 12.759 -22.462
990 315 2 0.0 -10.369 12.364 -23.247
991 316 2 0.0 14.002 12.763 22.730
992 316 2 0.0 13.405 12.284 22.269
993 316 2 0.0 13.268 12.691 21.487
994 316 2 0.0 12.677 12.137 20.984
995 317 2 0.0 -6.530 -8.668 47.069
996 317 2 0.0 -6.660 -9.471 47.438
997 317 2 0.0 -7.488 -9.493 47.770
998 317 2 0.0 -7.630 -10.375 48.105
999 318 2 0.0 -0.900 12.363 6.465
1000 318 2 0.0 -0.796 13.075 5.935
1001 318 2 0.0 0.024 13.041 5.584
1002 318 2 0.0 0.096 13.773 4.976
1003 319 2 0.0 -2.174 -3.598 -33.021
1004 319 2 0.0 -2.067 -3.697 -32.139
1005 319 2 0.0 -1.236 -3.989 -31.992
1006 319 2 0.0 -1.120 -4.031 -31.046
1007 320 2 0.0 7.145 9.610 35.439
1008 320 2 0.0 7.702 10.289 35.273
1009 320 2 0.0 8.530 9.961 35.217
1010 320 2 0.0 9.101 10.687 34.979
1011 321 2 0.0 -13.771 4.959 42.473
1012 321 2 0.0 -14.190 5.147 41.707
1013 321 2 0.0 -13.571 5.291 41.081
1014 321 2 0.0 -14.034 5.430 40.258
1015 322 2 0.0 5.752 -6.252 -40.961
1016 322 2 0.0 5.890 -5.745 -40.238
1017 322 2 0.0 6.682 -5.343 -40.329
1018 322 2 0.0 6.785 -4.761 -39.580
1019 323 2 0.0 0.110 12.019 -16.401
1020 323 2 0.0 0.670 12.714 -16.455
1021 323 2 0.0 1.501 12.396 -16.512
1022 323 2 0.0 2.078 13.147 -16.630
1023 324 2 0.0 -7.137 8.177 -40.824
1024 324 2 0.0 -7.782 8.287 -40.216
1025 324 2 0.0 -7.778 7.577 -39.677
1026 324 2 0.0 -8.431 7.738 -38.999
1027 325 2 0.0 -1.388 -11.189 -9.014
1028 325 2 0.0 -1.272 -10.613 -8.341
1029 325 2 0.0 -0.510 -10.823 -7.927
1030 325 2 0.0 -0.370 -10.163 -7.251
1031 326 2 0.0 -0.458 -7.743 11.837
1032 326 2 0.0 -0.616 -8.086 11.027
1033 326 2 0.0 -0.188 -7.584 10.427
1034 326 2 0.0 -0.316 -7.999 9.576
1035 327 2 0.0 13.419 -4.446 -14.812
1036 327 2 0.0 13.629 -4.026 -14.051
1037 327 2 0.0 13.235 -4.460 -13.379
1038 327 2 0.0 13.518 -4.037 -12.571
1039 328 2 0.0 3.464 4.329 4.122
1040 328 2 0.0 2.856 4.967 4.265
1041 328 2 0.0 2.862 5.518 3.563
1042 328 2 0.0 2.166 6.156 3.704
1043 329 2 0.0 8.948 14.100 -26.567
1044 329 2 0.0 9.586 14.386 -26.009
1045 329 2 0.0 10.351 14.435 -26.465
1046 329 2 0.0 11.005 14.798 -25.873
1047 330 2 0.0 -10.751 8.191 -46.095
1048 330 2 0.0 -10.010 7.781 -45.810
1049 330 2 0.0 -9.308 8.270 -46.062
1050 330 2 0.0 -8.531 7.851 -45.698
1051 331 2 0.0 -11.673 -5.851 -4.724
1052 331 2 0.0 -11.379 -5.103 -4.333
1053 331 2 0.0 -10.890 -5.336 -3.625
1054 331 2 0.0 -10.535 -4.531 -3.255
1055 332 2 0.0 7.138 -5.588 -50.000
1056 332 2 0.0 6.709 -5.567 -49.216
1057 332 2 0.0 7.278 -5.832 -48.582
1058 332 2 0.0 6.823 -5.747 -47.747
1059 333 2 0.0 13.319 -15.000 3.058
1060 333 2 0.0 13.221 -14.642 3.871
1061 333 2 0.0 12.505 -14.109 3.853
1062 333 2 0.0 12.380 -13.783 4.741
1063 334 2 0.0 6.601 0.391 -44.689
1064 334 2 0.0 6.406 -0.216 -44.063
1065 334 2 0.0 5.729 0.098 -43.575
1066 334 2 0.0 5.495 -0.586 -42.952
1067 335 2 0.0 4.517 14.593 7.216
1068 335 2 0.0 5.398 14.553 7.362
1069 335 2 0.0 5.807 15.000 6.706
1070 335 2 0.0 6.740 15.000 6.909
1071 336 2 0.0 8.089 -1.667 -44.563
1072 336 2 0.0 8.530 -1.478 -43.809
1073 336 2 0.0 7.948 -1.513 -43.133
1074 336 2 0.0 8.446 -1.370 -42.331
1075 337 2 0.0 -1.231 7.737 -40.422
1076 337 2 0.0 -0.848 8.447 -40.809
1077 337 2 0.0 -1.452 8.830 -41.342
1078 337 2 0.0 -1.048 9.618 -41.698
1079 338 2 0.0 -7.061 -0.591 14.933
1080 338 2 0.0 -7.180 -0.845 15.782
1081 338 2 0.0 -7.618 -1.622 15.779
1082 338 2 0.0 -7.683 -1.908 16.687
1083 339 2 0.0 -1.256 13.819 45.245
1084 339 2 0.0 -0.949 12.980 45.280
1085 339 2 0.0 -1.352 12.512 44.636
1086 339 2 0.0 -0.969 11.637 44.648
1087 340 2 0.0 -9.601 -4.639 42.833
1088 340 2 0.0 -9.614 -4.739 41.945
1089 340 2 0.0 -10.107 -5.458 41.754
1090 340 2 0.0 -10.160 -5.515 40.803
1091 341 2 0.0 5.365 10.216 35.376
1092 341 2 0.0 4.814 9.833 35.967
1093 341 2 0.0 4.187 10.429 36.187
1094 341 2 0.0 3.575 9.985 36.770
1095 342 2 0.0 -13.723 -8.665 -42.128
1096 342 2 0.0 -14.296 -8.017 -41.905
1097 342 2 0.0 -13.915 -7.233 -42.097
1098 342 2 0.0 -14.562 -6.556 -41.910
1099 343 2 0.0 8.792 -1.746 -44.626
1100 343 2 0.0 8.279 -1.034 -44.456
1101 343 2 0.0 8.394 -0.446 -45.117
1102 343 2 0.0 7.795 0.279 -44.951
1103 344 2 0.0 12.387 -5.836 38.116
1104 344 2 0.0 11.925 -5.319 37.552
1105 344 2 0.0 11.751 -5.797 36.818
1106 344 2 0.0 11.207 -5.252 36.254
1107 345 2 0.0 -15.000 -12.200 -32.300
1108 345 2 0.0 -14.897 -11.746 -33.063
1109 345 2 0.0 -14.422 -12.252 -33.624
1110 345 2 0.0 -14.373 -11.779 -34.452
1111 346 2 0.0 -11.224 -1.961 2.738
1112 346 2 0.0 -10.949 -1.729 3.555
1113 346 2 0.0 -11.075 -2.425 4.098
1114 346 2 0.0 -10.721 -2.182 4.950
1115 347 2 0.0 12.096 12.435 -39.704
1116 347 2 0.0 12.607 12.368 -38.973
1117 347 2 0.0 12.090 12.505 -38.260
1118 347 2 0.0 12.636 12.370 -37.489
1119 348 2 0.0 -12.055 -4.366 31.258
1120 348 2 0.0 -12.752 -3.837 31.440
1121 348 2 0.0 -12.758 -3.174 30.843
1122 348 2 0.0 -13.541 -2.655 31.013
1123 349 2 0.0 13.413 -7.746 4.051
1124 349 2 0.0 13.413 -8.602 3.795
1125 349 2 0.0 14.227 -8.798 3.485
1126 349 2 0.0 14.226 -9.729 3.273
1127 350 2 0.0 11.599 -5.087 -26.849
1128 350 2 0.0 11.845 -4.999 -25.994
1129 350 2 0.0 12.335 -5.711 -25.773
1130 350 2 0.0 12.639 -5.572 -24.879
1131 351 2 0.0 -14.687 -5.580 38.161
1132 351 2 0.0 -14.376 -6.306 37.743
1133 351 2 0.0 -15.000 -6.942 37.794
1134 351 2 0.0 -14.679 -7.687 37.291
1135 352 2 0.0 -6.282 1.322 -17.552
1136 352 2 0.0 -5.661 0.680 -17.594
1137 352 2 0.0 -5.576 0.325 -16.780
1138 352 2 0.0 -4.956 -0.397 -16.855
1139 353 2 0.0 -12.763 -9.613 25.460
1140 353 2 0.0 -12.653 -9.884 26.305
1141 353 2 0.0 -11.877 -10.320 26.356
1142 353 2 0.0 -11.747 -10.549 27.274
1143 354 2 0.0 4.326 -3.445 -0.478
1144 354 2 0.0 5.086 -3.248 -0.049
1145 354 2 0.0 5.046 -2.394 0.206
1146 354 2 0.0 5.835 -2.218 0.713
1147 355 2 0.0 -8.961 3.262 -43.389
1148 355 2 0.0 -8.156 3.196 -43.006
1149 355 2 0.0 -7.921 4.006 -42.716
1150 355 2 0.0 -7.090 3.907 -42.257
1151 356 2 0.0 14.026 -5.533 -15.740
1152 356 2 0.0 14.523 -5.404 -15.008
1153 356 2 0.0 13.972 -5.297 -14.315
1154 356 2 0.0 14.517 -5.222 -13.535
1155 357 2 0.0 -12.825 -13.021 34.139
1156 357 2 0.0 -12.560 -12.701 33.348
1157 357 2 0.0 -13.284 -12.576 32.843
1158 357 2 0.0 -12.989 -12.179 32.027
1159 358 2 0.0 3.178 -4.337 1.977
1160 358 2 0.0 3.358 -4.034 2.799
1161 358 2 0.0 2.610 -3.679 3.132
1162 358 2 0.0 2.804 -3.416 4.029
1163 359 2 0.0 -12.761 9.514 -6.330
1164 359 2 0.0 -12.895 8.863 -6.928
1165 359 2 0.0 -12.665 9.175 -7.732
1166 359 2 0.0 -12.756 8.450 -8.347
1167 360 2 0.0 -2.593 -9.721 -40.952
1168 360 2 0.0 -1.882 -9.453 -40.482
1169 360 2 0.0 -1.196 -9.364 -41.045
1170 360 2 0.0 -0.463 -9.020 -40.539
1171 361 2 0.0 10.238 -13.114 -5.620
1172 361 2 0.0 10.636 -13.369 -6.378
1173 361 2 0.0 10.234 -12.950 -7.056
1174 361 2 0.0 10.709 -13.186 -7.849
1175 362 2 0.0 -7.597 0.643 12.392
1176 362 2 0.0 -7.020 0.646 11.710
1177 362 2 0.0 -7.484 0.542 10.955
1178 362 2 0.0 -6.861 0.608 10.235
1179 363 2 0.0 -3.601 10.078 -4.261
1180 363 2 0.0 -4.213 10.204 -3.622
1181 363 2 0.0 -3.786 10.410 -2.867
1182 363 2 0.0 -4.454 10.599 -2.212
1183 364 2 0.0 3.256 -12.928 7.849
1184 364 2 0.0 3.785 -13.113 7.153
1185 364 2 0.0 3.764 -13.994 7.016
1186 364 2 0.0 4.284 -14.166 6.234
1187 365 2 0.0 -11.784 15.000 27.275
1188 365 2 0.0 -12.541 14.625 27.568
1189 365 2 0.0 -12.328 14.019 28.187
1190 365 2 0.0 -13.148 13.673 28.531
1191 366 2 0.0 9.935 11.031 43.791
1192 366 2 0.0 9.072 10.815 43.704
1193 366 2 0.0 9.006 9.926 43.721
1194 366 2 0.0 8.076 9.715 43.688
1195 367 2 0.0 -2.276 7.104 8.527
1196 367 2 0.0 -1.806 7.728 8.962
1197 367 2 0.0 -1.795 7.511 9.827
1198 367 2 0.0 -1.241 8.153 10.267
1199 368 2 0.0 -8.725 -2.566 -2.284
1200 368 2 0.0 -9.251 -2.100 -2.837
1201 368 2 0.0 -9.045 -1.236 -2.752
1202 368 2 0.0 -9.571 -0.761 -3.391
1203 369 2 0.0 -2.215 -2.206 2.026
1204 369 2 0.0 -2.685 -2.359 2.771
1205 369 2 0.0 -2.110 -2.464 3.444
1206 369 2 0.0 -2.628 -2.565 4.239
1207 370 2 0.0 -11.184 1.274 -44.201
1208 370 2 0.0 -12.057 1.082 -44.236
1209 370 2 0.0 -12.478 1.606 -43.649
1210 370 2 0.0 -13.412 1.433 -43.743
1211 371 2 0.0 -10.957 -2.433 -7.354
1212 371 2 0.0 -10.245 -2.044 -7.729
1213 371 2 0.0 -10.209 -2.297 -8.584
1214 371 2 0.0 -9.481 -1.827 -8.983
1215 372 2 0.0 6.019 -8.087 -4.661
1216 372 2 0.0 6.268 -8.944 -4.714
1217 372 2 0.0 6.862 -9.018 -5.376
1218 372 2 0.0 7.162 -9.925 -5.379
1219 373 2 0.0 -9.734 2.261 26.584
1220 373 2 0.0 -10.125 1.518 26.279
1221 373 2 0.0 -10.590 1.730 25.547
1222 373 2 0.0 -10.950 0.917 25.201
1223 374 2 0.0 13.113 5.287 9.887
1224 374 2 0.0 13.867 5.730 10.072
1225 374 2 0.0 13.696 6.301 10.735
1226 374 2 0.0 14.523 6.721 10.960
1227 375 2 0.0 10.445 4.912 -37.022
1228 375 2 0.0 10.730 4.072 -37.129
1229 375 2 0.0 10.026 3.530 -37.057
1230 375 2 0.0 10.337 2.645 -37.233
1231 376 2 0.0 11.191 -7.015 39.901
1232 376 2 0.0 11.063 -6.477 40.603
1233 376 2 0.0 10.255 -6.650 40.940
1234 376 2 0.0 10.159 -6.112 41.723
1235 377 2 0.0 4.330 4.122 10.311
1236 377 2 0.0 4.661 3.630 9.642
1237 377 2 0.0 4.716 4.150 8.919
1238 377 2 0.0 5.127 3.628 8.233
1239 378 2 0.0 -9.074 -2.187 17.668
1240 378 2 0.0 -9.895 -1.959 17.937
1241 378 2 0.0 -10.296 -2.691 18.253
1242 378 2 0.0 -11.146 -2.419 18.591
1243 379 2 0.0 -10.038 1.199 -42.273
1244 379 2 0.0 -10.188 0.791 -41.492
1245 379 2 0.0 -9.672 1.177 -40.875
1246 379 2 0.0 -9.889 0.772 -40.038
1247 380 2 0.0 8.455 -4.919 -30.518
1248 380 2 0.0 7.715 -4.527 -30.205
1249 380 2 0.0 7.614 -3.749 -30.631
1250 380 2 0.0 6.790 -3.373 -30.330
1251 381 2 0.0 -7.501 -0.288 5.720
1252 381 2 0.0 -7.544 0.193 6.473
1253 381 2 0.0 -8.077 -0.236 7.045
1254 381 2 0.0 -8.062 0.258 7.862
1255 382 2 0.0 9.628 4.439 -39.306
1256 382 2 0.0 9.639 3.839 -38.644
1257 382 2 0.0 9.732 3.029 -39.006
1258 382 2 0.0 9.803 2.408 -38.285
1259 383 2 0.0 14.151 -5.674 10.676
1260 383 2 0.0 14.597 -5.671 11.450
1261 383 2 0.0 14.014 -5.505 12.105
1262 383 2 0.0 14.495 -5.566 12.927
1263 384 2 0.0 -6.787 13.303 -3.912
1264 384 2 0.0 -7.401 12.806 -3.492
1265 384 2 0.0 -7.870 13.342 -2.955
1266 384 2 0.0 -8.558 12.808 -2.563
1267 385 2 0.0 -12.159 3.927 -1.179
1268 385 2 0.0 -12.008 3.347 -0.516
1269 385 2 0.0 -11.543 3.768 0.119
1270 385 2 0.0 -11.443 3.155 0.843
1271 386 2 0.0 3.638 10.356 -42.769
1272 386 2 0.0 3.799 11.226 -42.901
1273 386 2 0.0 4.072 11.332 -43.744
1274 386 2 0.0 4.180 12.270 -43.884
1275 387 2 0.0 -10.252 -11.305 1.307
1276 387 2 0.0 -10.355 -11.868 1.993
1277 387 2 0.0 -11.224 -12.055 2.068
1278 387 2 0.0 -11.310 -12.703 2.764
1279 388 2 0.0 -10.357 13.307 48.575
1280 388 2 0.0 -11.206 13.582 48.534
1281 388 2 0.0 -11.339 14.169 49.192
1282 388 2 0.0 -12.231 14.497 49.096
1283 389 2 0.0 -8.171 -10.807 37.390
1284 389 2 0.0 -8.635 -11.477 37.758
1285 389 2 0.0 -8.411 -11.527 38.620
1286 389 2 0.0 -8.958 -12.205 39.010
1287 390 2 0.0 0.933 -6.781 38.065
1288 390 2 0.0 0.339 -7.324 37.674
1289 390 2 0.0 -0.001 -7.859 38.301
1290 390 2 0.0 -0.675 -8.388 37.880
1291 391 2 0.0 0.424 -10.788 26.665
1292 391 2 0.0 0.064 -11.453 26.189
1293 391 2 0.0 -0.790 -11.538 26.433
1294 391 2 0.0 -1.173 -12.210 25.874
1295 392 2 0.0 14.566 -1.538 -27.095
1296 392 2 0.0 14.616 -1.719 -27.969
1297 392 2 0.0 14.042 -1.185 -28.395
1298 392 2 0.0 14.151 -1.348 -29.329
1299 393 2 0.0 -3.621 -13.969 -45.300
1300 393 2 0.0 -4.270 -13.830 -44.701
1301 393 2 0.0 -4.529 -12.979 -44.766
1302 393 2 0.0 -5.261 -12.865 -44.165
1303 394 2 0.0 -5.016 1.199 -3.594
1304 394 2 0.0 -5.299 0.823 -2.834
1305 394 2 0.0 -4.835 1.180 -2.160
1306 394 2 0.0 -5.191 0.814 -1.354
1307 395 2 0.0 -10.757 -10.056 -47.266
1308 395 2 0.0 -10.665 -10.607 -46.569
1309 395 2 0.0 -10.219 -10.173 -45.930
1310 395 2 0.0 -10.183 -10.753 -45.173
1311 396 2 0.0 -2.730 13.372 -34.407
1312 396 2 0.0 -3.224 12.874 -33.853
1313 396 2 0.0 -3.613 13.419 -33.264
1314 396 2 0.0 -4.182 12.880 -32.720
1315 397 2 0.0 3.262 -15.000 17.950
1316 397 2 0.0 2.729 -14.691 17.302
1317 397 2 0.0 3.245 -14.407 16.632
1318 397 2 0.0 2.661 -14.138 15.927
1319 398 2 0.0 8.910 13.064 19.168
1320 398 2 0.0 8.560 12.248 19.268
1321 398 2 0.0 8.188 12.204 20.077
1322 398 2 0.0 7.768 11.349 20.143
1323 399 2 0.0 1.477 6.729 14.855
1324 399 2 0.0 2.010 7.096 15.473
1325 399 2 0.0 1.576 7.085 16.252
1326 399 2 0.0 2.179 7.423 16.910
1327 400 2 0.0 8.026 -7.677 -7.847
1328 400 2 0.0 7.538 -7.791 -7.107
1329 400 2 0.0 7.497 -7.009 -6.680
1330 400 2 0.0 6.923 -7.133 -5.927
1331 401 2 0.0 -10.082 14.077 24.871
1332 401 2 0.0 -10.380 13.243 24.993
1333 401 2 0.0 -11.191 13.292 25.363
1334 401 2 0.0 -11.519 12.398 25.431
1335 402 2 0.0 4.230 -11.030 -44.986
1336 402 2 0.0 4.195 -11.637 -45.641
1337 402 2 0.0 3.406 -11.559 -46.050
1338 402 2 0.0 3.410 -12.171 -46.782
1339 403 2 0.0 -10.657 13.621 -0.261
1340 403 2 0.0 -10.469 13.215 0.513
1341 403 2 0.0 -10.675 13.775 1.176
1342 403 2 0.0 -10.525 13.305 1.993
1343 404 2 0.0 -7.027 -12.722 44.707
1344 404 2 0.0 -6.509 -12.745 43.979
1345 404 2 0.0 -6.742 -13.459 43.497
1346 404 2 0.0 -6.223 -13.435 42.696
1347 405 2 0.0 -2.979 14.094 28.770
1348 405 2 0.0 -3.864 14.127 28.895
1349 405 2 0.0 -4.087 14.972 29.072
1350 405 2 0.0 -5.039 15.000 29.142
1351 406 2 0.0 4.633 -5.535 -19.534
1352 406 2 0.0 4.684 -4.813 -20.057
1353 406 2 0.0 5.116 -4.175 -19.607
1354 406 2 0.0 5.215 -3.434 -20.201
1355 407 2 0.0 -8.739 -14.862 20.338
1356 407 2 0.0 -8.668 -14.378 19.590
1357 407 2 0.0 -9.047 -14.839 18.926
1358 407 2 0.0 -9.017 -14.284 18.150
1359 408 2 0.0 -1.845 8.636 6.558
1360 408 2 0.0 -2.458 8.573 5.910
1361 408 2 0.0 -2.030 8.490 5.132
1362 408 2 0.0 -2.696 8.363 4.460
1363 409 2 0.0 -13.116 6.085 10.303
1364 409 2 0.0 -13.972 6.137 10.554
1365 409 2 0.0 -14.007 6.032 11.439
1366 409 2 0.0 -14.918 6.151 11.698
1367 410 2 0.0 -2.598 -9.350 -19.637
1368 410 2 0.0 -3.047 -9.421 -18.867
1369 410 2 0.0 -2.460 -9.611 -18.222
1370 410 2 0.0 -2.946 -9.623 -17.401
1371 411 2 0.0 -10.611 -1.392 -15.666
1372 411 2 0.0 -10.209 -0.612 -15.837
1373 411 2 0.0 -9.732 -0.705 -16.585
1374 411 2 0.0 -9.359 0.150 -16.785
1375 412 2 0.0 -0.271 -3.111 -20.230
1376 412 2 0.0 0.016 -3.777 -19.708
1377 412 2 0.0 0.899 -3.849 -19.811
1378 412 2 0.0 1.196 -4.522 -19.204
1379 413 2 0.0 -2.915 11.969 -18.935
1380 413 2 0.0 -2.948 11.277 -19.499
1381 413 2 0.0 -2.192 11.269 -19.972
1382 413 2 0.0 -2.217 10.491 -20.524
1383 414 2 0.0 -13.753 3.959 42.623
1384 414 2 0.0 -14.370 3.320 42.726
1385 414 2 0.0 -14.381 2.824 41.984
1386 414 2 0.0 -15.000 2.113 42.134
1387 415 2 0.0 5.198 -8.456 -40.881
1388 415 2 0.0 5.973 -8.737 -41.226
1389 415 2 0.0 6.381 -8.036 -41.597
1390 415 2 0.0 7.231 -8.341 -41.906
1391 416 2 0.0 1.269 11.331 -39.882
1392 416 2 0.0 1.983 11.512 -39.376
1393 416 2 0.0 2.642 10.962 -39.621
1394 416 2 0.0 3.413 11.208 -39.116
1395 417 2 0.0 -4.182 4.901 -0.588
1396 417 2 0.0 -3.712 4.842 0.170
1397 417 2 0.0 -3.392 5.652 0.360
1398 417 2 0.0 -2.946 5.584 1.201
1399 418 2 0.0 -4.303 13.522 16.491
1400 418 2 0.0 -5.047 13.353 16.024
1401 418 2 0.0 -5.183 12.471 16.031
1402 418 2 0.0 -6.011 12.314 15.582
1403 419 2 0.0 14.691 -14.428 28.317
1404 419 2 0.0 14.369 -14.698 29.106
1405 419 2 0.0 15.000 -14.566 29.722
1406 419 2 0.0 14.619 -14.802 30.565
1407 420 2 0.0 -4.118 -2.614 43.210
1408 420 2 0.0 -3.534 -2.224 43.762
1409 420 2 0.0 -3.342 -1.416 43.435
1410 420 2 0.0 -2.767 -0.990 44.067
1411 421 2 0.0 9.683 8.877 43.806
1412 421 2 0.0 10.374 8.311 43.776
1413 421 2 0.0 11.049 8.676 44.232
1414 421 2 0.0 11.756 8.034 44.241
1415 422 2 0.0 -13.847 -5.165 15.748
1416 422 2 0.0 -14.409 -5.772 15.410
1417 422 2 0.0 -14.445 -5.654 14.526
1418 422 2 0.0 -15.000 -6.346 14.175
1419 423 2 0.0 -8.151 11.291 -38.695
1420 423 2 0.0 -7.829 11.542 -37.900
1421 423 2 0.0 -7.530 12.379 -37.974
1422 423 2 0.0 -7.247 12.650 -37.103
1423 424 2 0.0 -5.483 -6.698 20.729
1424 424 2 0.0 -6.042 -6.394 21.357
1425 424 2 0.0 -5.660 -6.523 22.153
1426 424 2 0.0 -6.242 -6.139 22.805
1427 425 2 0.0 -4.592 8.858 27.157
1428 425 2 0.0 -4.827 9.487 27.747
1429 425 2 0.0 -4.552 10.276 27.435
1430 425 2 0.0 -4.863 10.941 28.045
1431 426 2 0.0 2.565 -12.389 -33.293
1432 426 2 0.0 2.000 -11.709 -33.161
1433 426 2 0.0 1.193 -12.050 -32.989
1434 426 2 0.0 0.617 -11.315 -32.791
1435 427 2 0.0 -12.177 -4.016 -5.739
1436 427 2 0.0 -11.801 -4.783 -6.001
1437 427 2 0.0 -12.449 -5.390 -6.096
1438 427 2 0.0 -12.039 -6.183 -6.434
1439 428 2 0.0 4.709 -4.774 33.735
1440 428 2 0.0 4.678 -4.867 34.623
1441 428 2 0.0 5.415 -4.500 34.967
1442 428 2 0.0 5.336 -4.555 35.916
1443 429 2 0.0 7.662 3.575 21.241
1444 429 2 0.0 7.028 3.038 21.568
1445 429 2 0.0 6.920 2.359 21.000
1446 429 2 0.0 6.285 1.765 21.393
1447 430 2 0.0 -8.693 -14.124 25.691
1448 430 2 0.0 -8.390 -13.295 25.549
1449 430 2 0.0 -8.055 -13.261 24.723
1450 430 2 0.0 -7.792 -12.356 24.567
1451 431 2 0.0 7.173 -4.820 -28.753
1452 431 2 0.0 6.404 -5.248 -28.907
1453 431 2 0.0 5.735 -4.707 -28.673
1454 431 2 0.0 4.923 -5.155 -28.900
1455 432 2 0.0 -10.736 13.073 -19.591
1456 432 2 0.0 -11.608 12.914 -19.704
1457 432 2 0.0 -11.750 12.756 -20.571
1458 432 2 0.0 -12.673 12.528 -20.664
1459 433 2 0.0 -8.632 4.166 -16.701
1460 433 2 0.0 -8.309 3.364 -16.475
1461 433 2 0.0 -8.790 2.743 -16.900
1462 433 2 0.0 -8.394 1.899 -16.696
1463 434 2 0.0 -3.538 -11.772 -5.162
1464 434 2 0.0 -3.272 -11.576 -5.993
1465 434 2 0.0 -3.589 -12.206 -6.540
1466 434 2 0.0 -3.348 -11.950 -7.427
1467 435 2 0.0 -4.122 -13.555 -1.302
1468 435 2 0.0 -3.989 -14.108 -0.612
1469 435 2 0.0 -3.373 -13.743 -0.080
1470 435 2 0.0 -3.288 -14.315 0.679
1471 436 2 0.0 -0.420 5.466 -30.409
1472 436 2 0.0 0.126 5.187 -31.059
1473 436 2 0.0 0.451 5.907 -31.474
1474 436 2 0.0 1.077 5.593 -32.124
1475 437 2 0.0 9.496 12.476 14.230
1476 437 2 0.0 10.135 12.253 13.646
1477 437 2 0.0 10.806 11.879 14.099
1478 437 2 0.0 11.451 11.593 13.455
1479 438 2 0.0 -14.829 -11.397 -47.729
1480 438 2 0.0 -14.073 -11.233 -47.283
1481 438 2 0.0 -13.615 -10.613 -47.733
1482 438 2 0.0 -12.842 -10.406 -47.213
1483 439 2 0.0 4.517 -2.403 30.227
1484 439 2 0.0 5.340 -2.119 30.025
1485 439 2 0.0 5.315 -1.230 29.950
1486 439 2 0.0 6.211 -0.939 29.795
1487 440 2 0.0 2.091 -13.513 -24.752
1488 440 2 0.0 1.612 -12.889 -24.327
1489 440 2 0.0 1.168 -12.416 -24.940
1490 440 2 0.0 0.617 -11.797 -24.467
1491 441 2 0.0 -8.329 -8.763 -46.442
1492 441 2 0.0 -8.307 -8.700 -47.333
1493 441 2 0.0 -8.342 -9.525 -47.670
1494 441 2 0.0 -8.379 -9.436 -48.620
1495 442 2 0.0 -6.669 -8.322 -14.428
1496 442 2 0.0 -7.514 -8.067 -14.292
1497 442 2 0.0 -7.576 -7.747 -13.461
1498 442 2 0.0 -8.468 -7.424 -13.353
1499 443 2 0.0 -1.756 -13.746 6.631
1500 443 2 0.0 -2.231 -13.488 5.920
1501 443 2 0.0 -2.901 -14.067 5.810
1502 443 2 0.0 -3.433 -13.743 5.086
1503 444 2 0.0 -9.415 -10.007 6.132
1504 444 2 0.0 -9.647 -9.195 5.841
1505 444 2 0.0 -9.048 -8.610 6.149
1506 444 2 0.0 -9.275 -7.759 5.779
1507 445 2 0.0 -8.786 14.107 44.477
1508 445 2 0.0 -9.558 13.678 44.613
1509 445 2 0.0 -9.477 13.193 45.358
1510 445 2 0.0 -10.328 12.791 45.521
1511 446 2 0.0 -11.945 -12.223 -14.853
1512 446 2 0.0 -11.245 -12.260 -15.407
1513 446 2 0.0 -11.206 -11.489 -15.855
1514 446 2 0.0 -10.420 -11.521 -16.396
1515 447 2 0.0 -10.902 9.257 11.736
1516 447 2 0.0 -11.516 8.812 11.264
1517 447 2 0.0 -12.286 9.261 11.319
1518 447 2 0.0 -12.913 8.806 10.761
1519 448 2 0.0 -0.931 -0.531 38.437
1520 448 2 0.0 -0.408 -0.762 37.750
1521 448 2 0.0 -0.647 -0.271 37.044
1522 448 2 0.0 -0.040 -0.486 36.339
1523 449 2 0.0 -0.040 -12.533 33.389
1524 449 2 0.0 -0.260 -13.316 33.759
1525 449 2 0.0 -0.976 -13.187 34.275
1526 449 2 0.0 -1.234 -14.042 34.612
1527 450 2 0.0 -4.985 11.112 -27.396
1528 450 2 0.0 -4.982 11.385 -28.247
1529 450 2 0.0 -4.913 12.275 -28.252
1530 450 2 0.0 -4.850 12.544 -29.166
1531 451 2 0.0 1.748 4.064 -7.856
1532 451 2 0.0 2.254 3.433 -8.236
1533 451 2 0.0 3.088 3.745 -8.293
1534 451 2 0.0 3.625 3.038 -8.644
1535 452 2 0.0 7.200 -7.945 -6.862
1536 452 2 0.0 7.392 -7.375 -6.201
1537 452 2 0.0 7.188 -6.552 -6.478
1538 452 2 0.0 7.341 -5.965 -5.741
1539 453 2 0.0 6.467 10.792 -39.229
1540 453 2 0.0 6.498 10.265 -38.507
1541 453 2 0.0 7.327 10.294 -38.179
1542 453 2 0.0 7.326 9.776 -37.377
1543 454 2 0.0 9.262 -10.666 -27.595
1544 454 2 0.0 9.065 -11.446 -27.205
1545 454 2 0.0 8.408 -11.830 -27.671
1546 454 2 0.0 8.252 -12.686 -27.278
1547 455 2 0.0 5.566 -11.019 25.288
1548 455 2 0.0 4.836 -11.359 24.900
1549 455 2 0.0 4.500 -11.983 25.442
1550 455 2 0.0 3.690 -12.292 25.042
1551 456 2 0.0 -7.621 14.521 28.150
1552 456 2 0.0 -7.044 14.183 27.557
1553 456 2 0.0 -6.946 14.776 26.898
1554 456 2 0.0 -6.282 14.428 26.307
1555 457 2 0.0 -0.338 0.988 32.960
1556 457 2 0.0 0.018 1.052 32.143
1557 457 2 0.0 -0.642 1.212 31.565
1558 457 2 0.0 -0.239 1.337 30.709
1559 458 2 0.0 1.189 11.269 25.769
1560 458 2 0.0 0.791 10.688 25.218
1561 458 2 0.0 0.414 11.150 24.555
1562 458 2 0.0 0.047 10.513 23.946
1563 459 2 0.0 3.663 8.272 -26.757
1564 459 2 0.0 3.486 7.443 -27.042
1565 459 2 0.0 3.463 7.456 -27.934
1566 459 2 0.0 3.334 6.555 -28.221
1567 460 2 0.0 13.475 8.399 -1.620
1568 460 2 0.0 13.285 9.268 -1.531
1569 460 2 0.0 12.453 9.339 -1.217
1570 460 2 0.0 12.289 10.268 -1.071
1571 461 2 0.0 4.004 -11.943 -47.608
1572 461 2 0.0 3.766 -12.040 -48.464
1573 461 2 0.0 4.259 -12.696 -48.815
1574 461 2 0.0 3.950 -12.828 -49.709
1575 462 2 0.0 6.108 -0.809 -15.116
1576 462 2 0.0 5.473 -0.294 -14.756
1577 462 2 0.0 5.382 0.432 -15.267
1578 462 2 0.0 4.661 0.940 -14.904
1579 463 2 0.0 1.377 -12.059 -33.474
1580 463 2 0.0 1.060 -12.647 -32.879
1581 463 2 0.0 0.211 -12.823 -33.090
1582 463 2 0.0 -0.092 -13.495 -32.484
1583 464 2 0.0 -8.868 -14.130 -28.675
1584 464 2 0.0 -9.173 -13.549 -28.068
1585 464 2 0.0 -8.473 -13.112 -27.728
1586 464 2 0.0 -8.820 -12.456 -27.128
1587 465 2 0.0 10.183 -13.042 39.301
1588 465 2 0.0 9.594 -13.491 39.801
1589 465 2 0.0 9.725 -14.363 39.666
1590 465 2 0.0 9.130 -14.827 40.251
1591 466 2 0.0 -6.034 2.941 6.151
1592 466 2 0.0 -5.903 2.684 5.305
1593 466 2 0.0 -6.348 1.921 5.176
1594 466 2 0.0 -6.248 1.694 4.254
1595 467 2 0.0 2.294 -7.341 31.608
1596 467 2 0.0 1.702 -7.134 32.245
1597 467 2 0.0 1.891 -7.622 32.968
1598 467 2 0.0 1.289 -7.345 33.655
1599 468 2 0.0 -5.754 10.178 -39.094
1600 468 2 0.0 -5.242 9.446 -39.124
1601 468 2 0.0 -4.414 9.678 -38.887
1602 468 2 0.0 -3.896 8.876 -38.865
1603 469 2 0.0 -10.317 1.777 30.830
1604 469 2 0.0 -10.162 2.438 31.412
1605 469 2 0.0 -10.874 2.975 31.416
1606 469 2 0.0 -10.718 3.639 32.084
1607 470 2 0.0 10.914 -14.441 20.972
1608 470 2 0.0 10.654 -13.590 21.057
1609 470 2 0.0 10.743 -13.193 20.263
1610 470 2 0.0 10.405 -12.306 20.356
1611 471 2 0.0 -0.077 -9.261 31.742
1612 471 2 0.0 -0.353 -8.643 31.158
1613 471 2 0.0 -0.162 -8.936 30.336
1614 471 2 0.0 -0.517 -8.295 29.724
1615 472 2 0.0 3.019 -12.364 -13.858
1616 472 2 0.0 3.650 -12.198 -13.247
1617 472 2 0.0 4.251 -11.649 -13.611
1618 472 2 0.0 4.881 -11.435 -12.927
1619 473 2 0.0 6.070 7.151 35.387
1620 473 2 0.0 6.385 6.812 34.622
1621 473 2 0.0 6.095 7.324 33.952
1622 473 2 0.0 6.489 6.984 33.152
1623 474 2 0.0 -9.654 -0.369 -13.979
1624 474 2 0.0 -9.559 -1.118 -13.500
1625 474 2 0.0 -9.009 -0.944 -12.819
1626 474 2 0.0 -8.968 -1.734 -12.286
1627 475 2 0.0 -13.233 -8.342 10.863
1628 475 2 0.0 -13.102 -8.877 11.567
1629 475 2 0.0 -12.623 -8.428 12.171
1630 475 2 0.0 -12.545 -8.990 12.938
1631 476 2 0.0 -13.392 8.159 -35.313
1632 476 2 0.0 -13.683 7.451 -34.853
1633 476 2 0.0 -13.369 6.715 -35.248
1634 476 2 0.0 -13.638 5.974 -34.711
1635 477 2 0.0 -1.070 11.944 -16.793
1636 477 2 0.0 -0.706 12.238 -17.555
1637 477 2 0.0 -1.275 12.062 -18.219
1638 477 2 0.0 -0.899 12.435 -19.013
1639 478 2 0.0 -7.822 -0.107 -26.196
1640 478 2 0.0 -8.560 -0.266 -26.675
1641 478 2 0.0 -9.003 0.503 -26.764
1642 478 2 0.0 -9.753 0.328 -27.327
1643 479 2 0.0 1.141 -10.058 -3.564
1644 479 2 0.0 1.831 -9.832 -3.042
1645 479 2 0.0 1.648 -10.097 -2.210
1646 479 2 0.0 2.418 -9.903 -1.681
1647 480 2 0.0 -2.953 5.976 1.987
1648 480 2 0.0 -2.441 5.494 2.539
1649 480 2 0.0 -1.932 6.057 3.008
1650 480 2 0.0 -1.438 5.531 3.632
1651 481 2 0.0 -8.584 2.142 -9.818
1652 481 2 0.0 -9.115 2.784 -10.140
1653 481 2 0.0 -9.860 2.399 -10.446
1654 481 2 0.0 -10.440 3.102 -10.729
1655 482 2 0.0 -4.488 -10.528 -19.377
1656 482 2 0.0 -4.900 -10.017 -19.985
1657 482 2 0.0 -4.468 -10.107 -20.760
1658 482 2 0.0 -4.954 -9.605 -21.409
1659 483 2 0.0 4.153 0.577 -16.209
1660 483 2 0.0 4.838 0.883 -15.723
1661 483 2 0.0 4.904 1.762 -15.862
1662 483 2 0.0 5.598 2.082 -15.291
1663 484 2 0.0 -15.000 7.311 22.778
1664 484 2 0.0 -14.657 6.661 23.287
1665 484 2 0.0 -14.749 6.900 24.141
1666 484 2 0.0 -14.435 6.171 24.670
1667 485 2 0.0 -3.777 -10.041 -14.620
1668 485 2 0.0 -4.098 -9.702 -15.382
1669 485 2 0.0 -3.545 -9.934 -16.043
1670 485 2 0.0 -3.933 -9.618 -16.855
1671 486 2 0.0 -13.005 -7.839 33.376
1672 486 2 0.0 -13.500 -7.637 32.660
1673 486 2 0.0 -13.683 -6.764 32.687
1674 486 2 0.0 -14.159 -6.555 31.886
1675 487 2 0.0 6.727 -5.172 -42.042
1676 487 2 0.0 6.731 -5.812 -41.418
1677 487 2 0.0 7.105 -6.540 -41.772
1678 487 2 0.0 7.156 -7.192 -41.076
1679 488 2 0.0 10.161 2.791 -3.513
1680 488 2 0.0 10.198 2.691 -4.400
1681 488 2 0.0 10.295 1.822 -4.577
1682 488 2 0.0 10.272 1.727 -5.526
1683 489 2 0.0 -7.270 -12.769 -22.848
1684 489 2 0.0 -6.768 -12.597 -23.567
1685 489 2 0.0 -7.288 -12.211 -24.181
1686 489 2 0.0 -6.725 -11.979 -24.916
1687 490 2 0.0 -3.877 10.693 -15.503
1688 490 2 0.0 -3.273 10.837 -16.146
1689 490 2 0.0 -3.647 10.627 -16.928
1690 490 2 0.0 -3.012 10.843 -17.607
1691 491 2 0.0 -2.414 8.928 23.515
1692 491 2 0.0 -3.052 8.853 24.136
1693 491 2 0.0 -2.670 8.941 24.937
1694 491 2 0.0 -3.372 8.919 25.584
1695 492 2 0.0 -8.553 11.349 -46.342
1696 492 2 0.0 -8.881 10.770 -45.745
1697 492 2 0.0 -8.263 10.645 -45.114
1698 492 2 0.0 -8.651 10.073 -44.455
1699 493 2 0.0 -12.995 12.972 26.875
1700 493 2 0.0 -13.192 13.755 27.260
1701 493 2 0.0 -13.377 13.601 28.119
1702 493 2 0.0 -13.524 14.450 28.528
1703 494 2 0.0 -2.273 -5.807 28.186
1704 494 2 0.0 -2.653 -5.008 28.054
1705 494 2 0.0 -3.517 -5.075 28.269
1706 494 2 0.0 -3.893 -4.202 28.181
1707 495 2 0.0 -0.285 10.894 -28.918
1708 495 2 0.0 0.582 10.704 -29.023
1709 495 2 0.0 1.056 11.372 -28.669
1710 495 2 0.0 1.976 11.126 -28.735
1711 496 2 0.0 -2.282 -0.855 -29.708
1712 496 2 0.0 -2.755 -0.778 -28.954
1713 496 2 0.0 -2.214 -0.963 -28.268
1714 496 2 0.0 -2.717 -0.817 -27.470
1715 497 2 0.0 13.825 11.271 11.750
1716 497 2 0.0 13.915 10.453 12.098
1717 497 2 0.0 14.407 10.520 12.840
1718 497 2 0.0 14.441 9.650 13.230
1719 498 2 0.0 3.169 9.126 13.191
1720 498 2 0.0 3.480 9.476 12.430
1721 498 2 0.0 3.313 8.898 11.771
1722 498 2 0.0 3.595 9.313 10.959
1723 499 2 0.0 -13.870 11.323 40.072
1724 499 2 0.0 -13.663 10.783 40.754
1725 499 2 0.0 -13.672 11.267 41.503
1726 499 2 0.0 -13.510 10.665 42.225
1727 500 2 0.0 -7.384 -12.100 20.858
1728 500 2 0.0 -8.249 -12.274 20.998
1729 500 2 0.0 -8.336 -12.597 21.825
1730 500 2 0.0 -9.270 -12.720 21.979
1731 501 2 0.0 -10.080 -10.556 -40.173
1732 501 2 0.0 -10.512 -11.059 -40.773
1733 501 2 0.0 -10.536 -10.609 -41.543
1734 501 2 0.0 -10.946 -11.183 -42.187
1735 502 2 0.0 -1.012 -3.504 38.540
1736 502 2 0.0 -1.594 -3.678 39.196
1737 502 2 0.0 -1.141 -3.711 39.965
1738 502 2 0.0 -1.784 -3.836 40.660
1739 503 2 0.0 -12.573 14.215 -6.185
1740 503 2 0.0 -13.262 13.961 -5.675
1741 503 2 0.0 -13.740 13.364 -6.134
1742 503 2 0.0 -14.434 13.059 -5.554
1743 504 2 0.0 -4.306 13.782 26.115
1744 504 2 0.0 -4.879 14.121 26.711
1745 504 2 0.0 -4.982 13.524 27.366
1746 504 2 0.0 -5.548 13.926 28.022
1747 505 2 0.0 6.965 -10.377 -18.814
1748 505 2 0.0 6.720 -9.946 -18.070
1749 505 2 0.0 6.870 -10.486 -17.376
1750 505 2 0.0 6.661 -9.990 -16.587
1751 506 2 0.0 10.190 9.522 -46.715
1752 506 2 0.0 10.729 9.029 -47.230
1753 506 2 0.0 10.831 9.452 -48.009
1754 506 2 0.0 11.455 8.944 -48.521
1755 507 2 0.0 -0.648 -14.621 44.099
1756 507 2 0.0 -1.531 -14.564 44.219
1757 507 2 0.0 -1.920 -14.565 43.416
1758 507 2 0.0 -2.863 -14.564 43.564
1759 508 2 0.0 4.089 -6.985 -33.604
1760 508 2 0.0 4.188 -7.678 -34.161
1761 508 2 0.0 3.725 -7.505 -34.903
1762 508 2 0.0 3.892 -8.224 -35.508
1763 509 2 0.0 -11.969 12.702 42.911
1764 509 2 0.0 -11.702 11.994 43.386
1765 509 2 0.0 -11.407 12.285 44.176
1766 509 2 0.0 -11.184 11.514 44.691
1767 510 2 0.0 8.680 2.082 -46.125
1768 510 2 0.0 8.139 2.769 -45.943
1769 510 2 0.0 8.645 3.463 -45.702
1770 510 2 0.0 8.057 4.203 -45.571
1771 511 2 0.0 3.267 9.299 19.372
1772 511 2 0.0 4.009 9.523 18.928
1773 511 2 0.0 3.817 10.217 18.401
1774 511 2 0.0 4.632 10.482 17.981
1775 512 2 0.0 14.325 5.355 -32.708
1776 512 2 0.0 14.635 5.087 -31.914
1777 512 2 0.0 14.684 5.801 -31.381
1778 512 2 0.0 14.958 5.489 -30.522
1779 513 2 0.0 -10.193 12.176 23.035
1780 513 2 0.0 -10.831 11.569 23.188
1781 513 2 0.0 -10.989 11.135 22.425
1782 513 2 0.0 -11.627 10.452 22.620
1783 514 2 0.0 -6.683 -10.465 7.296
1784 514 2 0.0 -7.092 -9.799 7.731
1785 514 2 0.0 -6.510 -9.445 8.307
1786 514 2 0.0 -6.942 -8.700 8.717
1787 515 2 0.0 9.427 -8.587 35.868
1788 515 2 0.0 9.221 -8.144 35.120
1789 515 2 0.0 9.575 -8.587 34.431
1790 515 2 0.0 9.295 -8.135 33.638
1791 516 2 0.0 -4.149 1.839 -30.309
1792 516 2 0.0 -4.159 1.072 -29.850
1793 516 2 0.0 -3.394 1.013 -29.395
1794 516 2 0.0 -3.447 0.220 -28.865
1795 517 2 0.0 -4.592 -7.243 10.746
1796 517 2 0.0 -5.251 -7.318 10.147
1797 517 2 0.0 -5.080 -6.756 9.475
1798 517 2 0.0 -5.759 -6.892 8.819
1799 518 2 0.0 -10.439 -12.626 22.043
1800 518 2 0.0 -11.209 -12.176 22.097
1801 518 2 0.0 -11.095 -11.501 22.669
1802 518 2 0.0 -11.905 -10.997 22.669
1803 519 2 0.0 -8.230 8.718 42.115
1804 519 2 0.0 -8.722 8.906 41.393
1805 519 2 0.0 -9.120 9.693 41.527
1806 519 2 0.0 -9.591 9.907 40.725
1807 520 2 0.0 5.598 2.017 -44.992
1808 520 2 0.0 5.412 2.864 -45.208
1809 520 2 0.0 4.882 3.201 -44.575
1810 520 2 0.0 4.743 4.120 -44.789
1811 521 2 0.0 -2.545 -11.166 -29.127
1812 521 2 0.0 -2.194 -11.488 -28.371
1813 521 2 0.0 -2.463 -10.967 -27.698
1814 521 2 0.0 -2.130 -11.359 -26.893
1815 522 2 0.0 9.899 2.948 -42.855
1816 522 2 0.0 9.605 3.333 -43.606
1817 522 2 0.0 10.105 3.035 -44.283
1818 522 2 0.0 9.739 3.407 -45.083
1819 523 2 0.0 12.131 -10.814 -32.076
1820 523 2 0.0 11.470 -10.267 -32.326
1821 523 2 0.0 11.298 -9.713 -31.648
1822 523 2 0.0 10.634 -9.099 -31.954
1823 524 2 0.0 2.698 6.287 13.108
1824 524 2 0.0 2.554 6.863 12.440
1825 524 2 0.0 3.014 6.582 11.729
1826 524 2 0.0 2.801 7.172 11.009
1827 525 2 0.0 5.070 2.083 24.821
1828 525 2 0.0 4.919 2.239 25.688
1829 525 2 0.0 4.155 2.693 25.759
1830 525 2 0.0 3.978 2.798 26.691
1831 526 2 0.0 5.921 -6.992 -18.968
1832 526 2 0.0 5.801 -7.825 -18.667
1833 526 2 0.0 6.587 -8.129 -18.373
1834 526 2 0.0 6.429 -8.993 -18.000
1835 527 2 0.0 -9.335 10.933 -24.463
1836 527 2 0.0 -9.709 10.161 -24.714
1837 527 2 0.0 -10.088 9.791 -23.996
1838 527 2 0.0 -10.533 9.001 -24.293
1839 528 2 0.0 -12.270 -5.445 -5.835
1840 528 2 0.0 -11.629 -5.688 -5.261
1841 528 2 0.0 -11.556 -5.051 -4.641
1842 528 2 0.0 -10.912 -5.354 -4.006
1843 529 2 0.0 0.104 -13.266 14.926
1844 529 2 0.0 -0.022 -13.958 15.478
1845 529 2 0.0 0.777 -14.303 15.674
1846 529 2 0.0 0.629 -15.000 16.310
1847 530 2 0.0 -4.917 0.635 -32.432
1848 530 2 0.0 -5.552 0.660 -33.061
1849 530 2 0.0 -5.300 0.126 -33.730
1850 530 2 0.0 -6.014 0.117 -34.363
1851 531 2 0.0 -13.276 7.584 -39.863
1852 531 2 0.0 -14.040 7.408 -39.433
1853 531 2 0.0 -13.900 6.709 -38.897
1854 531 2 0.0 -14.705 6.573 -38.402
1855 532 2 0.0 -3.081 14.423 45.661
1856 532 2 0.0 -3.038 14.941 44.933
1857 532 2 0.0 -3.162 14.424 44.217
1858 532 2 0.0 -3.173 15.000 43.457
1859 533 2 0.0 7.405 -4.774 17.050
1860 533 2 0.0 6.588 -4.482 16.837
1861 533 2 0.0 6.314 -3.930 17.483
1862 533 2 0.0 5.469 -3.581 17.211
1863 534 2 0.0 6.489 4.465 -25.627
1864 534 2 0.0 6.423 3.618 -25.350
1865 534 2 0.0 6.956 3.516 -24.642
1866 534 2 0.0 6.827 2.625 -24.323
1867 535 2 0.0 0.483 -9.223 40.976
1868 535 2 0.0 1.357 -9.086 41.102
1869 535 2 0.0 1.522 -9.142 41.977
1870 535 2 0.0 2.466 -9.055 42.088
1871 536 2 0.0 -8.456 14.508 -3.759
1872 536 2 0.0 -9.228 14.269 -4.140
1873 536 2 0.0 -9.559 13.576 -3.684
1874 536 2 0.0 -10.410 13.373 -4.066
1875 537 2 0.0 5.789 13.399 11.623
1876 537 2 0.0 5.013 13.662 11.979
1877 537 2 0.0 4.614 12.946 12.333
1878 537 2 0.0 3.819 13.255 12.761
1879 538 2 0.0 -1.615 12.587 -46.008
1880 538 2 0.0 -1.205 12.026 -46.570
1881 538 2 0.0 -1.583 11.222 -46.481
1882 538 2 0.0 -1.176 10.651 -47.128
1883 539 2 0.0 -12.895 -11.724 -5.826
1884 539 2 0.0 -13.387 -11.532 -5.104
1885 539 2 0.0 -13.067 -12.004 -4.419
1886 539 2 0.0 -13.562 -11.742 -3.646
1887 540 2 0.0 -1.249 -7.272 -39.812
1888 540 2 0.0 -1.378 -8.007 -40.304
1889 540 2 0.0 -2.160 -8.365 -40.066
1890 540 2 0.0 -2.309 -9.113 -40.641
1891 541 2 0.0 -14.591 1.508 -46.055
1892 541 2 0.0 -14.809 1.015 -46.768
1893 541 2 0.0 -14.827 1.552 -47.481
1894 541 2 0.0 -15.000 1.000 -48.240
1895 542 2 0.0 3.284 10.607 36.264
1896 542 2 0.0 2.875 10.653 37.057
1897 542 2 0.0 2.854 9.831 37.405
1898 542 2 0.0 2.470 9.908 38.276
1899 543 2 0.0 0.391 7.209 -33.127
1900 543 2 0.0 0.122 6.357 -33.110
1901 543 2 0.0 0.780 5.852 -33.437
1902 543 2 0.0 0.500 4.943 -33.356
1903 544 2 0.0 -4.458 9.230 -44.205
1904 544 2 0.0 -4.973 9.089 -43.487
1905 544 2 0.0 -4.787 9.721 -42.886
1906 544 2 0.0 -5.387 9.592 -42.154
1907 545 2 0.0 -11.942 -11.226 -6.586
1908 545 2 0.0 -11.919 -12.042 -6.222
1909 545 2 0.0 -11.512 -11.981 -5.431
1910 545 2 0.0 -11.551 -12.847 -5.030
1911 546 2 0.0 7.990 -5.715 -29.226
1912 546 2 0.0 7.229 -5.630 -28.766
1913 546 2 0.0 6.790 -4.921 -29.085
1914 546 2 0.0 5.954 -4.882 -28.625
1915 547 2 0.0 -8.512 12.849 36.956
1916 547 2 0.0 -7.710 13.085 36.641
1917 547 2 0.0 -7.342 12.368 36.258
1918 547 2 0.0 -6.515 12.652 35.875
1919 548 2 0.0 4.136 -11.586 27.739
1920 548 2 0.0 4.159 -11.615 26.845
1921 548 2 0.0 4.991 -11.426 26.584
1922 548 2 0.0 5.012 -11.520 25.634
1923 549 2 0.0 0.953 11.038 -45.952
1924 549 2 0.0 0.414 11.254 -45.273
1925 549 2 0.0 -0.340 11.589 -45.614
1926 549 2 0.0 -0.927 11.756 -44.880
1927 550 2 0.0 -13.526 14.285 -2.896
1928 550 2 0.0 -13.802 13.849 -3.626
1929 550 2 0.0 -13.673 14.381 -4.331
1930 550 2 0.0 -13.916 13.879 -5.105
1931 551 2 0.0 8.383 1.251 21.418
1932 551 2 0.0 9.190 1.636 21.398
1933 551 2 0.0 9.152 2.329 20.837
1934 551 2 0.0 10.001 2.764 20.874
1935 552 2 0.0 -6.468 5.080 -17.733
1936 552 2 0.0 -6.839 5.169 -18.541
1937 552 2 0.0 -6.404 4.633 -19.106
1938 552 2 0.0 -6.850 4.695 -19.948
1939 553 2 0.0 1.194 15.000 -46.345
1940 553 2 0.0 0.951 14.869 -45.495
1941 553 2 0.0 1.568 14.356 -45.107
1942 553 2 0.0 1.326 14.277 -44.187
1943 554 2 0.0 -15.000 -3.328 -42.624
1944 554 2 0.0 -14.633 -2.596 -42.982
1945 554 2 0.0 -14.406 -2.784 -43.824
1946 554 2 0.0 -14.073 -1.977 -44.209
1947 555 2 0.0 11.987 -1.268 -25.512
1948 555 2 0.0 12.819 -1.111 -25.228
1949 555 2 0.0 12.788 -0.966 -24.348
1950 555 2 0.0 13.689 -0.860 -24.051
1951 556 2 0.0 5.560 -9.410 -42.635
1952 556 2 0.0 5.776 -8.806 -42.012
1953 556 2 0.0 5.254 -8.944 -41.302
1954 556 2 0.0 5.538 -8.332 -40.626
1955 557 2 0.0 7.562 -11.854 -10.308
1956 557 2 0.0 7.900 -11.532 -9.546
1957 557 2 0.0 7.566 -12.011 -8.871
1958 557 2 0.0 7.983 -11.695 -8.073
1959 558 2 0.0 1.268 11.353 7.995
1960 558 2 0.0 0.962 11.372 7.155
1961 558 2 0.0 1.638 11.164 6.610
1962 558 2 0.0 1.281 11.130 5.725
1963 559 2 0.0 -2.337 2.468 -46.991
1964 559 2 0.0 -2.557 1.733 -46.532
1965 559 2 0.0 -2.337 1.023 -47.024
1966 559 2 0.0 -2.522 0.250 -46.495
1967 560 2 0.0 6.658 -8.675 44.962
1968 560 2 0.0 6.145 -8.652 44.230
1969 560 2 0.0 6.653 -8.389 43.545
1970 560 2 0.0 6.106 -8.429 42.763
1971 561 2 0.0 -6.418 13.877 43.405
1972 561 2 0.0 -6.879 13.766 44.163
1973 561 2 0.0 -6.295 13.661 44.829
1974 561 2 0.0 -6.801 13.605 45.637
1975 562 2 0.0 -13.815 -7.680 7.416
1976 562 2 0.0 -14.088 -6.832 7.481
1977 562 2 0.0 -13.717 -6.477 8.211
1978 562 2 0.0 -13.970 -5.557 8.232
1979 563 2 0.0 8.115 -9.243 23.669
1980 563 2 0.0 8.836 -8.968 24.119
1981 563 2 0.0 9.538 -9.013 23.570
1982 563 2 0.0 10.286 -8.660 24.047
1983 564 2 0.0 9.424 -15.000 39.540
1984 564 2 0.0 9.064 -14.994 38.722
1985 564 2 0.0 9.727 -14.921 38.129
1986 564 2 0.0 9.331 -14.978 37.262
1987 565 2 0.0 0.014 -10.270 -32.158
1988 565 2 0.0 0.091 -10.479 -31.293
1989 565 2 0.0 0.811 -10.997 -31.196
1990 565 2 0.0 0.913 -11.159 -30.261
1991 566 2 0.0 3.982 11.426 -19.243
1992 566 2 0.0 3.885 12.284 -19.012
1993 566 2 0.0 3.042 12.522 -19.180
1994 566 2 0.0 2.940 13.420 -18.871
1995 567 2 0.0 10.168 -2.564 34.264
1996 567 2 0.0 10.351 -1.916 33.677
1997 567 2 0.0 10.046 -1.146 34.011
1998 567 2 0.0 10.302 -0.458 33.401
1999 568 2 0.0 5.116 -6.954 23.236
2000 568 2 0.0 5.408 -7.133 24.061
2001 568 2 0.0 6.222 -6.778 24.149
2002 568 2 0.0 6.493 -6.925 25.053
2003 569 2 0.0 5.977 -0.250 -8.036
2004 569 2 0.0 6.008 -0.061 -7.163
2005 569 2 0.0 5.222 -0.286 -6.804
2006 569 2 0.0 5.293 -0.134 -5.864
2007 570 2 0.0 0.388 8.463 -36.146
2008 570 2 0.0 0.912 8.333 -35.433
2009 570 2 0.0 0.389 8.274 -34.713
2010 570 2 0.0 0.958 8.075 -33.973
2011 571 2 0.0 -4.200 0.900 4.651
2012 571 2 0.0 -4.138 0.009 4.622
2013 571 2 0.0 -3.313 -0.203 4.356
2014 571 2 0.0 -3.245 -1.154 4.389
2015 572 2 0.0 -9.420 -11.458 47.261
2016 572 2 0.0 -8.712 -11.567 46.726
2017 572 2 0.0 -8.999 -11.551 45.882
2018 572 2 0.0 -8.225 -11.608 45.325
2019 573 2 0.0 -13.483 0.229 0.042
2020 573 2 0.0 -13.024 0.247 0.809
2021 573 2 0.0 -12.370 -0.357 0.754
2022 573 2 0.0 -11.855 -0.283 1.554
2023 574 2 0.0 -0.411 -11.181 -23.668
2024 574 2 0.0 0.258 -10.942 -23.126
2025 574 2 0.0 -0.085 -10.780 -22.318
2026 574 2 0.0 0.648 -10.585 -21.739
2027 575 2 0.0 -4.917 5.540 -44.345
2028 575 2 0.0 -5.805 5.499 -44.248
2029 575 2 0.0 -6.069 6.228 -43.808
2030 575 2 0.0 -7.022 6.198 -43.767
2031 576 2 0.0 -6.633 9.340 -9.077
2032 576 2 0.0 -6.276 9.623 -9.846
2033 576 2 0.0 -6.596 9.113 -10.504
2034 576 2 0.0 -6.254 9.466 -11.322
2035 577 2 0.0 0.402 -3.165 27.328
2036 577 2 0.0 0.597 -2.669 26.611
2037 577 2 0.0 0.707 -3.218 25.916
2038 577 2 0.0 0.853 -2.669 25.149
2039 578 2 0.0 14.295 14.354 2.493
2040 578 2 0.0 14.297 13.945 3.287
2041 578 2 0.0 14.386 14.568 3.919
2042 578 2 0.0 14.325 14.121 4.761
2043 579 2 0.0 8.792 -1.218 -45.808
2044 579 2 0.0 9.135 -1.639 -46.518
2045 579 2 0.0 8.780 -1.278 -47.253
2046 579 2 0.0 9.203 -1.696 -48.000
2047 580 2 0.0 2.786 -9.895 6.613
2048 580 2 0.0 2.701 -9.843 5.724
2049 580 2 0.0 3.458 -9.508 5.393
2050 580 2 0.0 3.374 -9.517 4.442
2051 581 2 0.0 1.996 1.420 -12.818
2052 581 2 0.0 2.432 1.746 -12.109
2053 581 2 0.0 2.712 1.057 -11.616
2054 581 2 0.0 3.227 1.420 -10.898
2055 582 2 0.0 -13.184 7.102 -15.439
2056 582 2 0.0 -13.560 6.893 -14.655
2057 582 2 0.0 -13.349 6.048 -14.464
2058 582 2 0.0 -13.705 5.862 -13.598
2059 583 2 0.0 14.010 8.319 -12.189
2060 583 2 0.0 13.547 7.815 -12.763
2061 583 2 0.0 13.241 8.346 -13.412
2062 583 2 0.0 12.802 7.784 -14.047
2063 584 2 0.0 9.773 -6.486 -27.129
2064 584 2 0.0 10.145 -6.646 -27.926
2065 584 2 0.0 9.817 -6.055 -28.508
2066 584 2 0.0 10.269 -6.201 -29.336
2067 585 2 0.0 -2.360 -14.921 43.408
2068 585 2 0.0 -2.511 -14.146 42.990
2069 585 2 0.0 -2.799 -13.557 43.596
2070 585 2 0.0 -2.896 -12.721 43.146
2071 586 2 0.0 4.032 -1.685 27.429
2072 586 2 0.0 4.329 -1.114 26.808
2073 586 2 0.0 4.005 -1.373 26.018
2074 586 2 0.0 4.280 -0.720 25.378
2075 587 2 0.0 1.660 2.030 38.081
2076 587 2 0.0 1.921 2.425 37.323
2077 587 2 0.0 1.810 1.842 36.656
2078 587 2 0.0 2.035 2.299 35.848
2079 588 2 0.0 11.047 -2.430 30.569
2080 588 2 0.0 10.436 -3.068 30.704
2081 588 2 0.0 10.539 -3.688 30.071
2082 588 2 0.0 9.922 -4.389 30.265
2083 589 2 0.0 -12.019 8.396 36.031
2084 589 2 0.0 -12.226 7.676 36.519
2085 589 2 0.0 -11.564 7.084 36.434
2086 589 2 0.0 -11.772 6.350 37.007
2087 590 2 0.0 4.338 1.448 20.976
2088 590 2 0.0 4.753 1.577 20.196
2089 590 2 0.0 4.648 0.841 19.702
2090 590 2 0.0 5.044 1.018 18.852
2091 591 2 0.0 -8.719 12.381 9.537
2092 591 2 0.0 -8.784 11.587 9.943
2093 591 2 0.0 -7.973 11.359 10.236
2094 591 2 0.0 -8.072 10.542 10.719
2095 592 2 0.0 -6.576 2.469 5.244
2096 592 2 0.0 -7.223 2.528 5.858
2097 592 2 0.0 -8.008 2.522 5.434
2098 592 2 0.0 -8.687 2.523 6.105
2099 593 2 0.0 -7.790 -6.566 45.367
2100 593 2 0.0 -7.753 -5.787 45.804
2101 593 2 0.0 -8.587 -5.548 46.015
2102 593 2 0.0 -8.524 -4.749 46.532
2103 594 2 0.0 -5.350 10.605 -7.945
2104 594 2 0.0 -4.802 9.945 -8.197
2105 594 2 0.0 -4.137 9.896 -7.605
2106 594 2 0.0 -3.597 9.149 -7.854
2107 595 2 0.0 -0.366 3.368 -45.732
2108 595 2 0.0 -0.091 3.713 -44.954
2109 595 2 0.0 -0.297 3.135 -44.307
2110 595 2 0.0 0.057 3.490 -43.494
2111 596 2 0.0 -11.126 9.357 -38.121
2112 596 2 0.0 -10.914 9.745 -38.898
2113 596 2 0.0 -10.191 9.334 -39.223
2114 596 2 0.0 -10.015 9.719 -40.079
2115 597 2 0.0 -0.475 -11.654 25.228
2116 597 2 0.0 -0.250 -12.039 24.453
2117 597 2 0.0 -0.107 -12.906 24.607
2118 597 2 0.0 0.072 -13.312 23.761
2119 598 2 0.0 12.975 -14.033 4.989
2120 598 2 0.0 12.782 -14.632 4.354
2121 598 2 0.0 12.017 -14.386 3.967
2122 598 2 0.0 11.857 -15.000 3.253
2123 599 2 0.0 -14.793 -4.382 35.311
2124 599 2 0.0 -15.000 -4.192 34.462
2125 599 2 0.0 -14.239 -4.076 34.011
2126 599 2 0.0 -14.477 -3.935 33.098
2127 600 2 0.0 -4.047 -7.277 44.164
2128 600 2 0.0 -3.172 -7.459 44.186
2129 600 2 0.0 -2.923 -7.718 43.369
2130 600 2 0.0 -1.978 -7.849 43.395
2131 601 2 0.0 10.547 -6.097 3.889
2132 601 2 0.0 11.432 -6.031 3.783
2133 601 2 0.0 11.824 -6.423 4.483
2134 601 2 0.0 12.765 -6.398 4.324
2135 602 2 0.0 -9.158 -14.346 -36.586
2136 602 2 0.0 -9.057 -13.575 -37.027
2137 602 2 0.0 -8.294 -13.199 -36.755
2138 602 2 0.0 -8.172 -12.410 -37.278
2139 603 2 0.0 -0.300 10.425 42.502
2140 603 2 0.0 -0.195 9.997 41.724
2141 603 2 0.0 0.662 9.759 41.653
2142 603 2 0.0 0.744 9.252 40.849
2143 604 2 0.0 8.706 -3.023 -43.675
2144 604 2 0.0 8.157 -3.037 -42.970
2145 604 2 0.0 8.643 -3.219 -42.245
2146 604 2 0.0 8.053 -3.170 -41.495
2147 605 2 0.0 -1.883 6.734 -45.205
2148 605 2 0.0 -2.033 7.587 -45.425
2149 605 2 0.0 -2.593 7.599 -46.119
2150 605 2 0.0 -2.790 8.515 -46.302
2151 606 2 0.0 -11.362 -7.188 -37.627
2152 606 2 0.0 -11.653 -6.970 -38.444
2153 606 2 0.0 -11.972 -7.708 -38.830
2154 606 2 0.0 -12.333 -7.446 -39.674
2155 607 2 0.0 -14.241 -10.863 21.204
2156 607 2 0.0 -14.305 -11.488 20.568
2157 607 2 0.0 -13.610 -12.041 20.652
2158 607 2 0.0 -13.727 -12.734 20.007
2159 608 2 0.0 -1.992 -6.581 -40.609
2160 608 2 0.0 -2.504 -7.192 -40.205
2161 608 2 0.0 -2.505 -7.016 -39.330
2162 608 2 0.0 -3.103 -7.639 -38.923
2163 609 2 0.0 6.172 6.674 -20.311
2164 609 2 0.0 6.056 7.466 -20.710
2165 609 2 0.0 5.217 7.501 -21.014
2166 609 2 0.0 5.092 8.373 -21.382
2167 610 2 0.0 5.570 -7.557 38.543
2168 610 2 0.0 5.069 -6.837 38.374
2169 610 2 0.0 4.294 -6.931 38.806
2170 610 2 0.0 3.797 -6.128 38.665
2171 611 2 0.0 -14.546 -8.940 15.924
2172 611 2 0.0 -14.134 -8.930 15.131
2173 611 2 0.0 -14.737 -9.127 14.504
2174 611 2 0.0 -14.295 -9.053 13.661
2175 612 2 0.0 -5.048 14.578 32.876
2176 612 2 0.0 -5.085 14.098 33.630
2177 612 2 0.0 -4.853 14.630 34.307
2178 612 2 0.0 -4.956 14.121 35.108
2179 613 2 0.0 -4.097 13.752 -33.204
2180 613 2 0.0 -3.279 13.507 -33.468
2181 613 2 0.0 -3.300 12.637 -33.661
2182 613 2 0.0 -2.437 12.406 -33.998
2183 614 2 0.0 0.524 -2.549 -24.273
2184 614 2 0.0 0.228 -2.197 -25.040
2185 614 2 0.0 0.519 -2.709 -25.710
2186 614 2 0.0 0.144 -2.355 -26.513
2187 615 2 0.0 -9.741 -9.587 29.035
2188 615 2 0.0 -10.149 -8.837 28.770
2189 615 2 0.0 -9.553 -8.341 28.328
2190 615 2 0.0 -10.019 -7.574 28.001
2191 616 2 0.0 -3.571 -12.801 6.969
2192 616 2 0.0 -2.705 -12.660 7.140
2193 616 2 0.0 -2.647 -12.027 7.767
2194 616 2 0.0 -1.722 -11.933 7.981
2195 617 2 0.0 -11.643 -9.263 -24.596
2196 617 2 0.0 -11.961 -8.580 -25.076
2197 617 2 0.0 -12.839 -8.523 -24.927
2198 617 2 0.0 -13.151 -7.753 -25.398
2199 618 2 0.0 3.788 -15.001 -40.966
2200 618 2 0.0 2.999 -14.997 -41.387
2201 618 2 0.0 3.087 -14.518 -42.135
2202 618 2 0.0 2.256 -14.575 -42.600
2203 619 2 0.0 8.478 -8.088 -41.834
2204 619 2 0.0 8.546 -7.718 -42.646
2205 619 2 0.0 8.594 -8.376 -43.246
2206 619 2 0.0 8.604 -7.966 -44.108
2207 620 2 0.0 -5.619 0.276 -7.459
2208 620 2 0.0 -5.885 0.357 -8.308
2209 620 2 0.0 -5.158 0.360 -8.826
2210 620 2 0.0 -5.462 0.386 -9.731
2211 621 2 0.0 1.602 -10.308 25.432
2212 621 2 0.0 1.700 -10.772 26.190
2213 621 2 0.0 1.494 -10.235 26.872
2214 621 2 0.0 1.546 -10.762 27.666
2215 622 2 0.0 6.510 -4.377 -28.303
2216 622 2 0.0 7.374 -4.484 -28.506
2217 622 2 0.0 7.810 -4.693 -27.756
2218 622 2 0.0 8.717 -4.862 -28.000
2219 623 2 0.0 10.755 10.611 -38.896
2220 623 2 0.0 11.500 10.412 -38.444
2221 623 2 0.0 11.262 10.081 -37.651
2222 623 2 0.0 12.065 9.817 -37.207
2223 624 2 0.0 2.719 12.891 -4.887
2224 624 2 0.0 2.966 12.473 -4.136
2225 624 2 0.0 2.243 12.382 -3.620
2226 624 2 0.0 2.511 11.882 -2.852
2227 625 2 0.0 12.196 10.645 -12.554
2228 625 2 0.0 12.199 9.983 -11.954
2229 625 2 0.0 12.992 9.982 -11.546
2230 625 2 0.0 12.955 9.311 -10.868
2231 626 2 0.0 10.634 -11.713 -17.725
2232 626 2 0.0 11.187 -11.082 -18.033
2233 626 2 0.0 11.219 -11.152 -18.922
2234 626 2 0.0 11.764 -10.435 -19.238
2235 627 2 0.0 -2.786 1.095 48.287
2236 627 2 0.0 -3.514 0.581 48.219
2237 627 2 0.0 -3.266 -0.268 48.337
2238 627 2 0.0 -4.061 -0.795 48.322
2239 628 2 0.0 8.145 1.711 -17.348
2240 628 2 0.0 8.757 1.207 -16.935
2241 628 2 0.0 9.219 1.732 -16.381
2242 628 2 0.0 9.826 1.168 -15.906
2243 629 2 0.0 -13.117 -10.318 20.420
2244 629 2 0.0 -13.450 -10.639 21.185
2245 629 2 0.0 -12.900 -10.403 21.847
2246 629 2 0.0 -13.300 -10.700 22.661
2247 630 2 0.0 -2.279 -0.741 -18.524
2248 630 2 0.0 -2.415 -0.879 -17.652
2249 630 2 0.0 -2.190 -1.723 -17.467
2250 630 2 0.0 -2.283 -1.835 -16.524
2251 631 2 0.0 0.625 10.610 14.724
2252 631 2 0.0 1.027 11.369 14.478
2253 631 2 0.0 0.950 11.952 15.149
2254 631 2 0.0 1.436 12.734 14.895
2255 632 2 0.0 -2.674 -14.554 -9.644
2256 632 2 0.0 -2.450 -13.814 -9.195
2257 632 2 0.0 -1.815 -14.029 -8.607
2258 632 2 0.0 -1.546 -13.219 -8.180
2259 633 2 0.0 -1.969 -13.610 6.737
2260 633 2 0.0 -2.148 -12.745 6.872
2261 633 2 0.0 -2.861 -12.690 7.405
2262 633 2 0.0 -3.001 -11.763 7.587
2263 634 2 0.0 8.845 -2.961 -11.469
2264 634 2 0.0 9.525 -2.637 -11.950
2265 634 2 0.0 10.022 -3.326 -12.224
2266 634 2 0.0 10.707 -2.969 -12.785
2267 635 2 0.0 -11.486 -8.329 -26.367
2268 635 2 0.0 -11.107 -7.569 -26.646
2269 635 2 0.0 -11.316 -6.926 -26.065
2270 635 2 0.0 -10.855 -6.138 -26.343
2271 636 2 0.0 -0.008 0.582 16.597
2272 636 2 0.0 0.094 1.395 16.955
2273 636 2 0.0 0.792 1.367 17.509
2274 636 2 0.0 0.924 2.254 17.836
2275 637 2 0.0 7.144 1.661 -9.057
2276 637 2 0.0 7.112 0.896 -8.597
2277 637 2 0.0 6.717 0.281 -9.110
2278 637 2 0.0 6.746 -0.542 -8.628
2279 638 2 0.0 -9.695 4.233 -28.392
2280 638 2 0.0 -9.357 3.937 -29.165
2281 638 2 0.0 -9.998 3.985 -29.783
2282 638 2 0.0 -9.605 3.724 -30.613
2283 639 2 0.0 12.587 5.511 -5.425
2284 639 2 0.0 11.875 5.183 -4.995
2285 639 2 0.0 11.357 5.868 -4.756
2286 639 2 0.0 10.575 5.498 -4.353
2287 640 2 0.0 3.145 1.642 -29.940
2288 640 2 0.0 2.461 2.125 -30.252
2289 640 2 0.0 1.739 1.927 -29.767
2290 640 2 0.0 1.035 2.494 -30.072
2291 641 2 0.0 14.935 -14.947 11.632
2292 641 2 0.0 14.761 -14.492 12.381
2293 641 2 0.0 15.000 -15.000 13.075
2294 641 2 0.0 14.865 -14.477 13.862
2295 642 2 0.0 -11.744 0.307 24.152
2296 642 2 0.0 -11.131 0.235 24.798
2297 642 2 0.0 -10.540 -0.385 24.551
2298 642 2 0.0 -9.861 -0.405 25.221
2299 643 2 0.0 9.045 8.477 -39.836
2300 643 2 0.0 9.298 8.442 -40.692
2301 643 2 0.0 9.903 7.792 -40.775
2302 643 2 0.0 10.116 7.727 -41.703
2303 644 2 0.0 7.706 6.187 -47.294
2304 644 2 0.0 7.126 6.724 -46.878
2305 644 2 0.0 7.589 7.370 -46.472
2306 644 2 0.0 6.952 7.967 -46.086
2307 645 2 0.0 -10.036 8.691 -11.604
2308 645 2 0.0 -9.280 9.010 -11.249
2309 645 2 0.0 -8.605 8.502 -11.535
2310 645 2 0.0 -7.802 8.892 -11.197
2311 646 2 0.0 -1.686 -9.993 9.009
2312 646 2 0.0 -1.421 -10.421 8.271
2313 646 2 0.0 -1.459 -11.298 8.430
2314 646 2 0.0 -1.231 -11.739 7.615
2315 647 2 0.0 3.648 -14.794 21.496
2316 647 2 0.0 3.397 -14.423 22.269
2317 647 2 0.0 3.579 -15.000 22.925
2318 647 2 0.0 3.362 -14.565 23.746
2319 648 2 0.0 -2.012 11.104 -36.103
2320 648 2 0.0 -1.619 10.344 -36.362
2321 648 2 0.0 -1.611 10.328 -37.254
2322 648 2 0.0 -1.135 9.541 -37.513
2323 649 2 0.0 -4.934 -2.359 -47.185
2324 649 2 0.0 -4.894 -1.537 -46.836
2325 649 2 0.0 -5.646 -1.109 -47.052
2326 649 2 0.0 -5.614 -0.257 -46.622
2327 650 2 0.0 -5.335 9.960 -15.755
2328 650 2 0.0 -4.911 9.589 -16.449
2329 650 2 0.0 -5.370 9.781 -17.189
2330 650 2 0.0 -4.872 9.430 -17.924
2331 651 2 0.0 -14.294 -1.061 -43.762
2332 651 2 0.0 -13.540 -0.607 -43.610
2333 651 2 0.0 -13.203 -0.357 -44.398
2334 651 2 0.0 -12.434 0.177 -44.214
2335 652 2 0.0 -10.486 -11.759 29.798
2336 652 2 0.0 -11.206 -11.948 30.293
2337 652 2 0.0 -11.549 -12.718 30.000
2338 652 2 0.0 -12.278 -12.934 30.576
2339 653 2 0.0 2.352 -8.671 -34.450
2340 653 2 0.0 3.219 -8.670 -34.234
2341 653 2 0.0 3.283 -8.714 -33.345
2342 653 2 0.0 4.212 -8.774 -33.136
2343 654 2 0.0 -14.571 -9.264 -36.446
2344 654 2 0.0 -14.565 -8.626 -37.072
2345 654 2 0.0 -13.797 -8.688 -37.522
2346 654 2 0.0 -13.833 -8.041 -38.223
2347 655 2 0.0 -4.275 6.957 -28.269
2348 655 2 0.0 -4.981 7.152 -27.756
2349 655 2 0.0 -4.695 7.646 -27.070
2350 655 2 0.0 -5.467 7.896 -26.567
2351 656 2 0.0 4.550 -1.428 -17.396
2352 656 2 0.0 4.162 -1.956 -18.004
2353 656 2 0.0 4.351 -1.632 -18.813
2354 656 2 0.0 3.981 -2.239 -19.450
2355 657 2 0.0 -8.432 -12.490 8.322
2356 657 2 0.0 -8.577 -12.756 7.481
2357 657 2 0.0 -7.860 -13.210 7.207
2358 657 2 0.0 -8.056 -13.538 6.332
2359 658 2 0.0 -1.707 7.909 44.875
2360 658 2 0.0 -1.668 7.017 44.846
2361 658 2 0.0 -0.996 6.752 45.370
2362 658 2 0.0 -1.007 5.798 45.375
2363 659 2 0.0 12.469 -6.253 26.437
2364 659 2 0.0 12.715 -7.017 26.831
2365 659 2 0.0 12.225 -7.676 26.483
2366 659 2 0.0 12.541 -8.490 26.869
2367 660 2 0.0 3.980 5.506 45.402
2368 660 2 0.0 3.305 5.204 45.904
2369 660 2 0.0 3.652 4.809 46.625
2370 660 2 0.0 2.919 4.547 47.178
2371 661 2 0.0 -6.750 13.755 17.974
2372 661 2 0.0 -6.610 13.575 18.838
2373 661 2 0.0 -6.375 14.334 19.244
2374 661 2 0.0 -6.288 14.137 20.174
2375 662 2 0.0 5.550 -14.153 10.353
2376 662 2 0.0 5.772 -13.686 11.082
2377 662 2 0.0 5.130 -13.801 11.690
2378 662 2 0.0 5.412 -13.347 12.481
2379 663 2 0.0 1.749 4.794 11.466
2380 663 2 0.0 2.465 4.347 11.171
2381 663 2 0.0 2.978 4.153 11.874
2382 663 2 0.0 3.705 3.625 11.551
2383 664 2 0.0 8.719 3.635 -11.121
2384 664 2 0.0 9.286 3.429 -11.780
2385 664 2 0.0 9.461 4.176 -12.237
2386 664 2 0.0 10.113 3.951 -12.897
2387 665 2 0.0 1.470 -4.520 -7.201
2388 665 2 0.0 0.954 -3.794 -7.281
2389 665 2 0.0 1.332 -3.134 -6.814
2390 665 2 0.0 0.803 -2.353 -6.959
2391 666 2 0.0 -0.192 -4.749 -33.265
2392 666 2 0.0 -0.958 -5.136 -33.512
2393 666 2 0.0 -1.608 -4.528 -33.450
2394 666 2 0.0 -2.406 -4.939 -33.774
2395 667 2 0.0 -13.889 7.170 32.700
2396 667 2 0.0 -13.466 6.430 32.970
2397 667 2 0.0 -12.648 6.663 33.241
2398 667 2 0.0 -12.233 5.874 33.582
2399 668 2 0.0 11.460 -6.627 -16.155
2400 668 2 0.0 10.684 -6.982 -16.420
2401 668 2 0.0 10.853 -7.781 -16.779
2402 668 2 0.0 10.010 -8.171 -17.000
2403 669 2 0.0 -0.154 -7.382 38.823
2404 669 2 0.0 -0.311 -6.899 39.559
2405 669 2 0.0 -0.883 -7.353 40.071
2406 669 2 0.0 -0.992 -6.853 40.877
2407 670 2 0.0 14.161 5.989 17.608
2408 670 2 0.0 13.823 6.618 18.145
2409 670 2 0.0 13.379 6.212 18.803
2410 670 2 0.0 13.078 6.894 19.398
2411 671 2 0.0 -11.752 4.849 22.750
2412 671 2 0.0 -11.183 4.562 23.376
2413 671 2 0.0 -10.826 3.795 23.093
2414 671 2 0.0 -10.177 3.534 23.743
2415 672 2 0.0 0.776 -4.665 -41.600
2416 672 2 0.0 0.254 -4.227 -42.179
2417 672 2 0.0 0.780 -3.823 -42.775
2418 672 2 0.0 0.207 -3.412 -43.418
2419 673 2 0.0 -12.159 -9.781 -37.755
2420 673 2 0.0 -13.023 -9.993 -37.671
2421 673 2 0.0 -13.236 -9.947 -36.806
2422 673 2 0.0 -14.174 -10.116 -36.742
2423 674 2 0.0 3.535 -13.551 10.887
2424 674 2 0.0 3.807 -13.099 11.608
2425 674 2 0.0 4.028 -13.691 12.238
2426 674 2 0.0 4.373 -13.195 12.977
2427 675 2 0.0 12.184 13.593 -14.837
2428 675 2 0.0 12.574 14.152 -14.260
2429 675 2 0.0 13.451 14.155 -14.427
2430 675 2 0.0 13.842 14.801 -13.843
2431 676 2 0.0 8.644 13.651 35.306
2432 676 2 0.0 8.218 13.370 34.572
2433 676 2 0.0 8.477 13.881 33.888
2434 676 2 0.0 8.061 13.529 33.105
2435 677 2 0.0 4.083 10.009 20.024
2436 677 2 0.0 4.528 10.662 20.442
2437 677 2 0.0 4.430 10.545 21.321
2438 677 2 0.0 4.960 11.212 21.751
2439 678 2 0.0 2.784 3.354 -44.648
2440 678 2 0.0 3.664 3.424 -44.784
2441 678 2 0.0 3.856 4.286 -44.916
2442 678 2 0.0 4.804 4.350 -44.998
2443 679 2 0.0 11.190 5.537 -11.883
2444 679 2 0.0 11.605 5.929 -12.571
2445 679 2 0.0 11.561 5.378 -13.271
2446 679 2 0.0 11.954 5.836 -14.010
2447 680 2 0.0 -10.474 11.559 2.588
2448 680 2 0.0 -9.604 11.760 2.625
2449 680 2 0.0 -9.256 11.627 1.814
2450 680 2 0.0 -8.343 11.903 1.855
2451 681 2 0.0 2.954 -11.586 -15.646
2452 681 2 0.0 3.015 -12.084 -14.906
2453 681 2 0.0 3.064 -11.534 -14.206
2454 681 2 0.0 3.067 -12.079 -13.423
2455 682 2 0.0 -1.301 -3.958 -33.105
2456 682 2 0.0 -0.883 -3.177 -32.987
2457 682 2 0.0 -1.364 -2.543 -33.390
2458 682 2 0.0 -0.936 -1.710 -33.203
2459 683 2 0.0 -7.832 -1.351 -11.468
2460 683 2 0.0 -7.527 -1.595 -12.271
2461 683 2 0.0 -8.182 -1.476 -12.864
2462 683 2 0.0 -7.821 -1.683 -13.723
2463 684 2 0.0 5.660 -1.512 -35.622
2464 684 2 0.0 4.967 -2.033 -35.403
2465 684 2 0.0 4.597 -2.332 -36.157
2466 684 2 0.0 3.899 -2.933 -35.905
2467 685 2 0.0 13.772 4.758 0.267
2468 685 2 0.0 13.794 5.270 0.999
2469 685 2 0.0 14.150 4.790 1.662
2470 685 2 0.0 14.222 5.370 2.417
2471 686 2 0.0 -2.182 -5.633 -35.075
2472 686 2 0.0 -1.573 -5.611 -35.728
2473 686 2 0.0 -0.942 -5.023 -35.499
2474 686 2 0.0 -0.271 -5.056 -36.177
2475 687 2 0.0 -1.722 -14.771 41.903
2476 687 2 0.0 -2.206 -15.000 41.188
2477 687 2 0.0 -1.944 -14.491 40.503
2478 687 2 0.0 -2.426 -14.790 39.735
2479 688 2 0.0 -2.138 9.500 -39.241
2480 688 2 0.0 -1.940 8.686 -39.553
2481 688 2 0.0 -1.684 8.180 -38.864
2482 688 2 0.0 -1.535 7.301 -39.205
2483 689 2 0.0 12.767 9.180 -2.249
2484 689 2 0.0 12.580 9.549 -1.457
2485 689 2 0.0 12.908 9.016 -0.820
2486 689 2 0.0 12.754 9.454 0.014
2487 690 2 0.0 5.815 8.405 35.721
2488 690 2 0.0 5.502 8.730 34.949
2489 690 2 0.0 5.966 8.359 34.284
2490 690 2 0.0 5.580 8.670 33.468
2491 691 2 0.0 -3.891 -13.037 -44.780
2492 691 2 0.0 -3.312 -12.551 -44.304
2493 691 2 0.0 -2.500 -12.905 -44.413
2494 691 2 0.0 -1.886 -12.340 -43.949
2495 692 2 0.0 8.767 -8.810 3.363
2496 692 2 0.0 8.361 -9.521 3.723
2497 692 2 0.0 7.972 -9.980 3.064
2498 692 2 0.0 7.597 -10.765 3.457
2499 693 2 0.0 4.646 -11.188 31.227
2500 693 2 0.0 4.469 -10.328 31.393
2501 693 2 0.0 4.913 -10.091 32.130
2502 693 2 0.0 4.762 -9.157 32.257
2503 694 2 0.0 -0.069 6.984 12.783
2504 694 2 0.0 -0.518 7.041 12.012
2505 694 2 0.0 -0.776 6.219 11.781
2506 694 2 0.0 -1.304 6.306 10.990
2507 695 2 0.0 -13.570 -6.393 -25.350
2508 695 2 0.0 -13.016 -6.996 -25.708
2509 695 2 0.0 -12.976 -7.696 -25.156
2510 695 2 0.0 -12.430 -8.354 -25.580
2511 696 2 0.0 11.187 -10.624 45.719
2512 696 2 0.0 11.052 -10.195 44.946
2513 696 2 0.0 11.573 -10.570 44.327
2514 696 2 0.0 11.372 -10.141 43.498
2515 697 2 0.0 -0.009 0.300 -30.350
2516 697 2 0.0 -0.845 0.180 -30.057
2517 697 2 0.0 -0.861 0.368 -29.185
2518 697 2 0.0 -1.770 0.295 -28.903
2519 698 2 0.0 -14.520 -8.703 -25.757
2520 698 2 0.0 -13.741 -8.656 -26.194
2521 698 2 0.0 -13.277 -9.395 -26.010
2522 698 2 0.0 -12.478 -9.358 -26.531
2523 699 2 0.0 -12.990 -12.663 -29.593
2524 699 2 0.0 -12.807 -13.500 -29.336
2525 699 2 0.0 -11.922 -13.578 -29.259
2526 699 2 0.0 -11.748 -14.455 -28.926
2527 700 2 0.0 -2.453 8.583 -47.693
2528 700 2 0.0 -2.185 9.363 -47.348
2529 700 2 0.0 -1.307 9.441 -47.489
2530 700 2 0.0 -1.050 10.303 -47.171
2531 701 2 0.0 -7.367 -1.350 -13.459
2532 701 2 0.0 -7.324 -1.812 -14.223
2533 701 2 0.0 -7.504 -1.253 -14.894
2534 701 2 0.0 -7.395 -1.747 -15.704
2535 702 2 0.0 -10.206 -0.138 25.709
2536 702 2 0.0 -9.897 -0.975 25.672
2537 702 2 0.0 -10.124 -1.319 24.880
2538 702 2 0.0 -9.735 -2.189 24.833
2539 703 2 0.0 -11.729 9.649 -7.545
2540 703 2 0.0 -12.494 9.331 -7.880
2541 703 2 0.0 -12.901 9.994 -8.318
2542 703 2 0.0 -13.683 9.623 -8.720
2543 704 2 0.0 10.736 2.967 -45.679
2544 704 2 0.0 10.788 3.394 -46.462
2545 704 2 0.0 11.611 3.730 -46.540
2546 704 2 0.0 11.668 4.128 -47.405
2547 705 2 0.0 -4.790 -5.154 -26.033
2548 705 2 0.0 -5.191 -4.382 -26.237
2549 705 2 0.0 -4.668 -3.716 -25.957
2550 705 2 0.0 -5.080 -2.902 -26.238
2551 706 2 0.0 10.103 -14.317 -18.170
2552 706 2 0.0 10.286 -14.867 -18.850
2553 706 2 0.0 10.163 -14.416 -19.610
2554 706 2 0.0 10.420 -14.997 -20.323
2555 707 2 0.0 12.969 7.296 0.733
2556 707 2 0.0 12.727 7.884 0.104
2557 707 2 0.0 12.699 8.693 0.478
2558 707 2 0.0 12.500 9.315 -0.218
2559 708 2 0.0 3.726 -14.484 28.422
2560 708 2 0.0 3.604 -13.991 27.687
2561 708 2 0.0 3.750 -14.511 26.977
2562 708 2 0.0 3.557 -13.987 26.204
2563 709 2 0.0 -13.438 6.663 -22.394
2564 709 2 0.0 -13.144 6.933 -21.594
2565 709 2 0.0 -13.597 6.486 -20.968
2566 709 2 0.0 -13.230 6.741 -20.124
2567 710 2 0.0 -10.067 -10.112 33.646
2568 710 2 0.0 -10.332 -9.287 33.865
2569 710 2 0.0 -10.943 -9.356 34.512
2570 710 2 0.0 -11.170 -8.467 34.775
2571 711 2 0.0 -2.699 10.229 -28.045
2572 711 2 0.0 -3.028 11.039 -28.233
2573 711 2 0.0 -3.866 10.937 -28.520
2574 711 2 0.0 -4.221 11.813 -28.658
2575 712 2 0.0 1.231 6.650 7.865
2576 712 2 0.0 1.273 6.800 6.985
2577 712 2 0.0 2.105 7.054 6.788
2578 712 2 0.0 2.149 7.151 5.839
2579 713 2 0.0 1.568 14.319 -26.370
2580 713 2 0.0 1.052 14.395 -25.644
2581 713 2 0.0 1.358 13.829 -25.027
2582 713 2 0.0 0.836 13.966 -24.240
2583 714 2 0.0 -10.640 -3.158 -2.822
2584 714 2 0.0 -9.869 -2.729 -2.965
2585 714 2 0.0 -10.031 -1.852 -2.940
2586 714 2 0.0 -9.190 -1.411 -3.034
2587 715 2 0.0 -11.600 10.916 39.267
2588 715 2 0.0 -10.990 11.227 38.692
2589 715 2 0.0 -11.212 10.945 37.875
2590 715 2 0.0 -10.588 11.335 37.268
2591 716 2 0.0 -7.286 -7.268 28.612
2592 716 2 0.0 -6.600 -6.754 28.865
2593 716 2 0.0 -6.125 -7.205 29.471
2594 716 2 0.0 -5.366 -6.668 29.685
2595 717 2 0.0 11.735 15.000 -28.906
2596 717 2 0.0 11.188 14.332 -28.675
2597 717 2 0.0 11.603 13.833 -28.063
2598 717 2 0.0 10.984 13.163 -27.785
2599 718 2 0.0 -6.310 7.002 -22.487
2600 718 2 0.0 -5.994 7.319 -21.713
2601 718 2 0.0 -6.487 6.978 -21.052
2602 718 2 0.0 -6.099 7.277 -20.233
2603 719 2 0.0 7.144 -9.109 35.036
2604 719 2 0.0 7.488 -9.744 34.510
2605 719 2 0.0 8.023 -9.350 33.915
2606 719 2 0.0 8.428 -10.046 33.402
2607 720 2 0.0 -4.529 6.514 47.820
2608 720 2 0.0 -4.719 7.235 47.327
2609 720 2 0.0 -4.158 7.251 46.633
2610 720 2 0.0 -4.414 7.990 46.086
2611 721 2 0.0 7.028 -10.188 4.378
2612 721 2 0.0 6.442 -10.862 4.408
2613 721 2 0.0 6.267 -11.115 3.571
2614 721 2 0.0 5.689 -11.872 3.624
2615 722 2 0.0 5.852 8.253 -35.097
2616 722 2 0.0 5.117 8.312 -34.592
2617 722 2 0.0 4.972 7.513 -34.221
2618 722 2 0.0 4.222 7.609 -33.639
2619 723 2 0.0 7.684 6.944 26.830
2620 723 2 0.0 8.155 7.341 26.183
2621 723 2 0.0 8.519 6.704 25.675
2622 723 2 0.0 8.967 7.144 24.956
2623 724 2 0.0 -3.121 -9.213 -20.571
2624 724 2 0.0 -3.363 -9.576 -19.791
2625 724 2 0.0 -2.698 -9.451 -19.209
2626 724 2 0.0 -2.996 -9.790 -18.368
2627 725 2 0.0 8.142 -8.525 40.804
2628 725 2 0.0 7.734 -8.183 41.522
2629 725 2 0.0 7.785 -8.784 42.180
2630 725 2 0.0 7.399 -8.380 42.954
2631 726 2 0.0 9.756 10.636 19.559
2632 726 2 0.0 9.498 9.822 19.822
2633 726 2 0.0 9.721 9.724 20.680
2634 726 2 0.0 9.385 8.875 20.959
2635 727 2 0.0 12.224 5.206 34.017
2636 727 2 0.0 11.529 5.107 34.570
2637 727 2 0.0 11.204 5.917 34.753
2638 727 2 0.0 10.428 5.790 35.294
2639 728 2 0.0 -6.491 13.563 -45.473
2640 728 2 0.0 -6.286 12.894 -44.916
2641 728 2 0.0 -6.683 13.055 -44.133
2642 728 2 0.0 -6.504 12.304 -43.572
2643 729 2 0.0 -10.205 11.540 47.200
2644 729 2 0.0 -9.818 11.365 46.414
2645 729 2 0.0 -8.934 11.427 46.520
2646 729 2 0.0 -8.536 11.178 45.689
2647 730 2 0.0 -9.983 1.796 -34.817
2648 730 2 0.0 -10.165 2.671 -34.818
2649 730 2 0.0 -10.374 2.909 -35.652
2650 730 2 0.0 -10.624 3.830 -35.623
2651 731 2 0.0 10.248 -14.827 -1.367
2652 731 2 0.0 9.812 -15.000 -2.128
2653 731 2 0.0 10.255 -14.609 -2.796
2654 731 2 0.0 9.812 -14.854 -3.605
2655 732 2 0.0 4.018 -14.999 24.725
2656 732 2 0.0 3.377 -14.388 24.846
2657 732 2 0.0 3.747 -13.672 25.229
2658 732 2 0.0 3.064 -13.009 25.294
2659 733 2 0.0 -8.234 -2.869 -27.521
2660 733 2 0.0 -7.470 -2.878 -27.986
2661 733 2 0.0 -7.589 -2.390 -28.723
2662 733 2 0.0 -6.749 -2.359 -29.175
2663 734 2 0.0 -8.531 2.798 -38.269
2664 734 2 0.0 -8.993 2.709 -39.028
2665 734 2 0.0 -8.590 3.198 -39.656
2666 734 2 0.0 -9.059 3.044 -40.473
2667 735 2 0.0 1.971 12.531 -6.971
2668 735 2 0.0 2.441 12.184 -6.294
2669 735 2 0.0 2.374 12.739 -5.598
2670 735 2 0.0 2.829 12.325 -4.869
2671 736 2 0.0 4.812 -11.158 -29.501
2672 736 2 0.0 4.707 -11.370 -30.363
2673 736 2 0.0 4.376 -12.197 -30.406
2674 736 2 0.0 4.213 -12.384 -31.327
2675 737 2 0.0 7.522 5.974 32.469
2676 737 2 0.0 7.685 5.491 31.735
2677 737 2 0.0 7.222 5.847 31.060
2678 737 2 0.0 7.455 5.358 30.274
2679 738 2 0.0 -6.611 3.206 -28.739
2680 738 2 0.0 -5.909 3.743 -28.607
2681 738 2 0.0 -5.886 3.960 -27.742
2682 738 2 0.0 -5.099 4.483 -27.608
2683 739 1 0.0 -14.934 4.373 -87.074
2684 740 1 0.0 10.023 -11.746 -98.306
2685 741 1 0.0 -11.619 -1.322 -124.950
2686 742 1 0.0 -3.183 -0.556 -61.380
2687 743 1 0.0 -13.595 11.497 -101.587
2688 744 2 0.0 2.391 -2.927 -111.895
2689 744 2 0.0 2.123 -3.454 -111.224
2690 744 2 0.0 1.237 -3.547 -111.283
2691 744 2 0.0 0.976 -4.160 -110.599
2692 745 2 0.0 -12.665 -10.613 -56.614
2693 745 2 0.0 -12.264 -10.419 -55.839
2694 745 2 0.0 -11.430 -10.157 -56.018
2695 745 2 0.0 -11.037 -9.897 -55.188
2696 746 2 0.0 3.622 11.332 -143.841
2697 746 2 0.0 3.705 11.837 -144.574
2698 746 2 0.0 3.804 11.293 -145.274
2699 746 2 0.0 3.831 11.845 -146.052
2700 747 2 0.0 -0.577 13.116 -113.569
2701 747 2 0.0 -0.766 12.692 -114.332
2702 747 2 0.0 -0.716 13.285 -114.997
2703 747 2 0.0 -0.860 12.804 -115.809
2704 748 2 0.0 -12.116 4.056 -57.903
2705 748 2 0.0 -12.013 3.629 -58.681
2706 748 2 0.0 -11.395 4.063 -59.156
2707 748 2 0.0 -11.253 3.560 -59.955
2708 749 2 0.0 -9.885 -7.232 -130.937
2709 749 2 0.0 -10.505 -6.589 -130.966
2710 749 2 0.0 -10.445 -6.113 -130.213
2711 749 2 0.0 -11.071 -5.396 -130.287
2712 750 2 0.0 7.926 7.814 -130.343
2713 750 2 0.0 8.389 8.475 -129.958
2714 750 2 0.0 8.783 8.148 -129.228
2715 750 2 0.0 9.320 8.848 -128.864
2716 751 2 0.0 0.127 12.350 -147.081
2717 751 2 0.0 0.338 11.740 -146.462
2718 751 2 0.0 -0.364 11.199 -146.358
2719 751 2 0.0 -0.102 10.520 -145.740
2720 752 2 0.0 -10.117 -7.372 -118.434
2721 752 2 0.0 -9.379 -7.843 -118.612
2722 752 2 0.0 -9.252 -7.835 -119.495
2723 752 2 0.0 -8.429 -8.290 -119.662
2724 753 2 0.0 -3.326 7.996 -58.101
2725 753 2 0.0 -4.041 7.476 -57.970
2726 753 2 0.0 -4.380 7.670 -57.168
2727 753 2 0.0 -5.176 7.151 -57.069
2728 754 2 0.0 0.951 -10.286 -66.586
2729 754 2 0.0 0.890 -9.821 -65.826
2730 754 2 0.0 0.998 -8.957 -66.021
2731 754 2 0.0 0.869 -8.470 -65.210
2732 755 2 0.0 -3.109 8.411 -103.202
2733 755 2 0.0 -3.228 8.964 -103.893
2734 755 2 0.0 -2.581 9.578 -103.871
2735 755 2 0.0 -2.687 10.122 -104.648
2736 756 2 0.0 12.209 -1.706 -117.683
2737 756 2 0.0 12.756 -2.028 -118.313
2738 756 2 0.0 13.592 -1.975 -118.007
2739 756 2 0.0 14.155 -2.378 -118.664
2740 757 2 0.0 10.813 -1.981 -96.530
2741 757 2 0.0 10.452 -2.372 -95.812
2742 757 2 0.0 11.110 -2.757 -95.347
2743 757 2 0.0 10.716 -3.116 -94.555
2744 758 2 0.0 13.851 -5.146 -131.265
2745 758 2 0.0 13.311 -4.819 -130.632
2746 758 2 0.0 12.924 -5.508 -130.217
2747 758 2 0.0 12.399 -5.145 -129.507
2748 759 2 0.0 2.488 2.279 -95.918
2749 759 2 0.0 2.327 1.966 -96.739
2750 759 2 0.0 1.835 2.570 -97.174
2751 759 2 0.0 1.724 2.249 -98.065
2752 760 2 0.0 5.959 -1.426 -56.777
2753 760 2 0.0 6.030 -1.087 -55.953
2754 760 2 0.0 6.895 -1.074 -55.733
2755 760 2 0.0 6.958 -0.654 -54.878
2756 761 2 0.0 7.475 -8.934 -80.137
2757 761 2 0.0 6.800 -8.932 -79.551
2758 761 2 0.0 6.992 -9.518 -78.906
2759 761 2 0.0 6.292 -9.459 -78.260
2760 762 2 0.0 -10.151 -13.764 -118.363
2761 762 2 0.0 -9.796 -14.149 -117.639
2762 762 2 0.0 -9.914 -13.598 -116.947
2763 762 2 0.0 -9.584 -14.049 -116.173
2764 763 2 0.0 -11.311 6.998 -130.676
2765 763 2 0.0 -11.485 7.218 -131.525
2766 763 2 0.0 -12.117 7.847 -131.524
2767 763 2 0.0 -12.246 8.112 -132.432
2768 764 2 0.0 1.918 3.136 -70.690
2769 764 2 0.0 2.086 2.897 -69.845
2770 764 2 0.0 2.177 2.010 -69.821
2771 764 2 0.0 2.415 1.779 -68.926
2772 765 2 0.0 4.135 -12.968 -98.986
2773 765 2 0.0 4.643 -12.929 -99.721
2774 765 2 0.0 4.246 -13.412 -100.357
2775 765 2 0.0 4.768 -13.311 -101.150
2776 766 2 0.0 -3.919 13.662 -136.222
2777 766 2 0.0 -3.428 12.939 -136.410
2778 766 2 0.0 -3.550 12.344 -135.757
2779 766 2 0.0 -3.068 11.558 -136.003
2780 767 2 0.0 8.526 -1.637 -133.237
2781 767 2 0.0 8.762 -0.781 -133.134
2782 767 2 0.0 8.429 -0.494 -132.358
2783 767 2 0.0 8.740 0.400 -132.236
2784 768 2 0.0 10.447 -5.787 -77.523
2785 768 2 0.0 10.928 -5.780 -78.276
2786 768 2 0.0 10.380 -5.968 -78.955
2787 768 2 0.0 10.896 -5.897 -79.755
2788 769 2 0.0 14.455 -3.175 -86.223
2789 769 2 0.0 14.623 -3.949 -86.637
2790 769 2 0.0 14.710 -3.782 -87.510
2791 769 2 0.0 14.948 -4.607 -87.928
2792 770 2 0.0 -5.981 8.663 -140.814
2793 770 2 0.0 -6.310 8.865 -141.620
2794 770 2 0.0 -5.655 8.768 -142.218
2795 770 2 0.0 -6.038 8.928 -143.078
2796 771 2 0.0 -5.879 3.801 -114.699
2797 771 2 0.0 -5.107 4.098 -114.360
2798 771 2 0.0 -4.634 4.459 -115.024
2799 771 2 0.0 -3.842 4.824 -114.635
2800 772 2 0.0 9.442 -1.521 -119.362
2801 772 2 0.0 9.941 -0.811 -119.577
2802 772 2 0.0 10.124 -0.365 -118.827
2803 772 2 0.0 10.707 0.353 -119.066
2804 773 2 0.0 -5.100 -0.403 -149.383
2805 773 2 0.0 -4.643 -1.076 -149.752
2806 773 2 0.0 -3.970 -1.286 -149.204
2807 773 2 0.0 -3.531 -2.045 -149.582
2808 774 2 0.0 -11.709 -12.417 -71.702
2809 774 2 0.0 -12.058 -12.346 -70.882
2810 774 2 0.0 -11.395 -12.432 -70.291
2811 774 2 0.0 -11.774 -12.293 -69.426
2812 775 2 0.0 0.720 14.738 -116.580
2813 775 2 0.0 1.570 14.653 -116.317
2814 775 2 0.0 1.571 14.341 -115.481
2815 775 2 0.0 2.483 14.198 -115.239
2816 776 2 0.0 -13.076 -4.305 -144.348
2817 776 2 0.0 -13.408 -5.135 -144.329
2818 776 2 0.0 -12.804 -5.665 -143.941
2819 776 2 0.0 -13.197 -6.532 -143.873
2820 777 2 0.0 -5.835 -6.214 -55.492
2821 777 2 0.0 -6.199 -5.942 -56.262
2822 777 2 0.0 -5.567 -5.971 -56.892
2823 777 2 0.0 -5.986 -5.736 -57.716
2824 778 2 0.0 -3.257 -11.516 -133.899
2825 778 2 0.0 -3.013 -11.729 -133.066
2826 778 2 0.0 -2.983 -10.978 -132.586
2827 778 2 0.0 -2.781 -11.231 -131.688
2828 779 2 0.0 -7.802 -14.001 -111.410
2829 779 2 0.0 -7.519 -13.834 -112.241
2830 779 2 0.0 -7.674 -14.561 -112.736
2831 779 2 0.0 -7.423 -14.345 -113.631
2832 780 1 0.0 -9.787 -7.902 129.464
2833 781 1 0.0 -7.305 4.098 102.542
2834 782 1 0.0 8.342 -0.770 119.624
2835 783 1 0.0 -4.989 -11.137 114.041
2836 784 1 0.0 -12.395 9.201 115.539
2837 785 2 0.0 8.535 13.261 109.980
2838 785 2 0.0 8.847 13.480 110.788
2839 785 2 0.0 8.220 13.278 111.390
2840 785 2 0.0 8.593 13.461 112.250
2841 786 2 0.0 -1.229 3.430 74.260
2842 786 2 0.0 -1.992 3.122 73.909
2843 786 2 0.0 -2.507 3.823 73.709
2844 786 2 0.0 -3.288 3.480 73.281
2845 787 2 0.0 -7.701 6.808 139.416
2846 787 2 0.0 -7.139 6.423 138.837
2847 787 2 0.0 -7.597 5.818 138.368
2848 787 2 0.0 -6.998 5.461 137.716
2849 788 2 0.0 -6.469 4.101 75.751
2850 788 2 0.0 -6.170 4.117 74.909
2851 788 2 0.0 -6.299 3.308 74.554
2852 788 2 0.0 -6.032 3.360 73.639
2853 789 2 0.0 0.205 -7.678 105.935
2854 789 2 0.0 0.559 -8.067 106.657
2855 789 2 0.0 0.444 -7.518 107.351
2856 789 2 0.0 0.771 -7.973 108.123
2857 790 2 0.0 -0.263 0.938 78.346
2858 790 2 0.0 -0.783 1.650 78.495
2859 790 2 0.0 -1.451 1.633 77.903
2860 790 2 0.0 -2.028 2.363 78.114
2861 791 2 0.0 -9.539 6.261 88.091
2862 791 2 0.0 -9.920 6.556 88.844
2863 791 2 0.0 -9.609 6.066 89.522
2864 791 2 0.0 -9.978 6.432 90.322
2865 792 2 0.0 2.096 6.460 93.643
2866 792 2 0.0 2.785 6.605 93.092
2867 792 2 0.0 2.527 6.390 92.265
2868 792 2 0.0 3.252 6.607 91.683
2869 793 2 0.0 -4.352 7.847 65.566
2870 793 2 0.0 -4.937 7.264 65.224
2871 793 2 0.0 -5.044 7.456 64.359
2872 793 2 0.0 -5.623 6.789 63.997
2873 794 2 0.0 -7.678 -1.836 98.460
2874 794 2 0.0 -8.546 -2.025 98.558
2875 794 2 0.0 -8.759 -2.658 97.965
2876 794 2 0.0 -9.671 -2.891 98.123
2877 795 2 0.0 -5.775 -5.135 53.169
2878 795 2 0.0 -6.229 -5.139 53.939
2879 795 2 0.0 -5.666 -5.374 54.590
2880 795 2 0.0 -6.150 -5.313 55.410
2881 796 2 0.0 2.528 -11.156 120.459
2882 796 2 0.0 2.480 -10.556 119.798
2883 796 2 0.0 3.192 -10.668 119.271
2884 796 2 0.0 3.094 -10.064 118.539
2885 797 2 0.0 -13.022 -10.929 134.250
2886 797 2 0.0 -13.842 -10.797 134.581
2887 797 2 0.0 -13.888 -9.956 134.876
2888 797 2 0.0 -14.785 -9.813 135.169
2889 798 2 0.0 5.114 -3.529 113.634
2890 798 2 0.0 5.899 -3.937 113.764
2891 798 2 0.0 5.754 -4.817 113.779
2892 798 2 0.0 6.607 -5.238 113.856
2893 799 2 0.0 -9.940 -6.892 107.648
2894 799 2 0.0 -10.260 -6.409 106.967
2895 799 2 0.0 -9.917 -6.737 106.212
2896 799 2 0.0 -10.314 -6.251 105.492
2897 800 2 0.0 -0.727 5.183 106.514
2898 800 2 0.0 -0.949 5.177 105.648
2899 800 2 0.0 -0.509 5.840 105.245
2900 800 2 0.0 -0.711 5.781 104.314
2901 801 2 0.0 9.908 11.455 116.098
2902 801 2 0.0 10.799 11.392 116.067
2903 801 2 0.0 11.136 12.218 116.087
2904 801 2 0.0 12.086 12.130 116.115
2905 802 2 0.0 8.834 -10.839 129.139
2906 802 2 0.0 8.020 -11.078 129.418
2907 802 2 0.0 7.501 -11.185 128.700
2908 802 2 0.0 6.655 -11.498 129.012
2909 803 2 0.0 4.656 11.458 113.076
2910 803 2 0.0 4.347 10.658 113.327
2911 803 2 0.0 4.987 10.249 113.796
2912 803 2 0.0 4.619 9.425 114.107
2913 804 2 0.0 -3.692 12.612 115.072
2914 804 2 0.0 -3.176 12.256 114.435
2915 804 2 0.0 -2.990 11.415 114.668
2916 804 2 0.0 -2.490 11.031 113.951
2917 805 2 0.0 8.338 -0.083 91.091
2918 805 2 0.0 8.875 0.556 91.413
2919 805 2 0.0 9.590 0.162 91.772
2920 805 2 0.0 10.178 0.858 92.055
2921 806 2 0.0 7.421 -0.963 72.088
2922 806 2 0.0 8.310 -0.874 72.116
2923 806 2 0.0 8.552 -0.315 71.464
2924 806 2 0.0 9.494 -0.184 71.546
2925 807 2 0.0 -8.939 8.678 138.164
2926 807 2 0.0 -8.644 8.715 137.321
2927 807 2 0.0 -7.778 8.498 137.321
2928 807 2 0.0 -7.495 8.483 136.410
2929 808 2 0.0 14.135 12.914 71.836
2930 808 2 0.0 14.426 12.846 72.679
2931 808 2 0.0 13.734 12.616 73.193
2932 808 2 0.0 14.074 12.488 74.076
2933 809 2 0.0 1.892 -10.579 78.379
2934 809 2 0.0 2.368 -10.421 79.119
2935 809 2 0.0 1.803 -10.384 79.808
2936 809 2 0.0 2.331 -10.276 80.595
2937 810 2 0.0 -4.091 -9.888 100.536
2938 810 2 0.0 -3.569 -10.052 99.830
2939 810 2 0.0 -3.854 -9.549 99.151
2940 810 2 0.0 -3.250 -9.691 98.426
2941 811 2 0.0 13.639 -9.080 107.104
2942 811 2 0.0 13.481 -9.540 106.354
2943 811 2 0.0 13.432 -8.959 105.679
2944 811 2 0.0 13.324 -9.470 104.880
2945 812 2 0.0 -5.939 -0.442 53.974
2946 812 2 0.0 -5.763 -0.809 53.178
2947 812 2 0.0 -5.969 -1.676 53.222
2948 812 2 0.0 -5.833 -2.038 52.349
2949 813 2 0.0 -0.883 -10.139 120.264
2950 813 2 0.0 -0.936 -9.440 120.819
2951 813 2 0.0 -0.919 -8.695 120.327
2952 813 2 0.0 -1.038 -7.963 120.928
2953 814 2 0.0 3.008 0.924 137.761
2954 814 2 0.0 3.016 0.383 137.050
2955 814 2 0.0 2.429 0.697 136.456
2956 814 2 0.0 2.494 0.144 135.681
2957 815 2 0.0 0.213 -13.879 135.532
2958 815 2 0.0 0.147 -13.127 136.011
2959 815 2 0.0 0.813 -12.586 135.769
2960 815 2 0.0 0.692 -11.767 136.244
2961 816 2 0.0 -0.385 -13.182 126.761
2962 816 2 0.0 -0.648 -13.873 127.263
2963 816 2 0.0 0.082 -14.294 127.557
2964 816 2 0.0 -0.215 -14.990 128.138
2965 817 2 0.0 0.732 -11.597 113.377
2966 817 2 0.0 1.216 -10.948 112.998
2967 817 2 0.0 2.008 -11.292 112.772
2968 817 2 0.0 2.489 -10.605 112.316
2969 818 2 0.0 -4.652 13.161 87.049
2970 818 2 0.0 -4.299 13.684 86.416
2971 818 2 0.0 -4.798 14.422 86.356
2972 818 2 0.0 -4.373 14.994 85.721
2973 819 2 0.0 -5.818 1.713 56.338
2974 819 2 0.0 -6.472 2.185 56.723
2975 819 2 0.0 -6.659 1.807 57.510
2976 819 2 0.0 -7.314 2.356 57.933
2977 820 2 0.0 -12.720 -2.879 73.859
2978 820 2 0.0 -13.230 -3.463 74.304
2979 820 2 0.0 -13.396 -3.125 75.113
2980 820 2 0.0 -13.990 -3.731 75.550

Bonds

1 1 91 92
2 1 92 93
3 1 93 94
4 1 95 96
5 1 96 97
6 1 97 98
7 1 99 100
8 1 100 101
9 1 101 102
10 1 103 104
11 1 104 105
12 1 105 106
13 1 107 108
14 1 108 109
15 1 109 110
16 1 111 112
17 1 112 113
18 1 113 114
19 1 115 116
20 1 116 117
21 1 117 118
22 1 119 120
23 1 120 121
24 1 121 122
25 1 123 124
26 1 124 125
27 1 125 126
28 1 127 128
29 1 128 129
30 1 129 130
31 1 131 132
32 1 132 133
33 1 133 134
34 1 135 136
35 1 136 137
36 1 137 138
37 1 139 140
38 1 140 141
39 1 141 142
40 1 143 144
41 1 144 145
42 1 145 146
43 1 147 148
44 1 148 149
45 1 149 150
46 1 151 152
47 1 152 153
48 1 153 154
49 1 155 156
50 1 156 157
51 1 157 158
52 1 159 160
53 1 160 161
54 1 161 162
55 1 163 164
56 1 164 165
57 1 165 166
58 1 167 168
59 1 168 169
60 1 169 170
61 1 171 172
62 1 172 173
63 1 173 174
64 1 175 176
65 1 176 177
66 1 177 178
67 1 179 180
68 1 180 181
69 1 181 182
70 1 183 184
71 1 184 185
72 1 185 186
73 1 187 188
74 1 188 189
75 1 189 190
76 1 191 192
77 1 192 193
78 1 193 194
79 1 195 196
80 1 196 197
81 1 197 198
82 1 199 200
83 1 200 201
84 1 201 202
85 1 203 204
86 1 204 205
87 1 205 206
88 1 207 208
89 1 208 209
90 1 209 210
91 1 211 212
92 1 212 213
93 1 213 214
94 1 215 216
95 1 216 217
96 1 217 218
97 1 219 220
98 1 220 221
99 1 221 222
100 1 223 224
101 1 224 225
102 1 225 226
103 1 227 228
104 1 228 229
105 1 229 230
106 1 231 232
107 1 232 233
108 1 233 234
109 1 235 236
110 1 236 237
111 1 237 238
112 1 239 240
113 1 240 241
114 1 241 242
115 1 243 244
116 1 244 245
117 1 245 246
118 1 247 248
119 1 248 249
120 1 249 250
121 1 251 252
122 1 252 253
123 1 253 254
124 1 255 256
125 1 256 257
126 1 257 258
127 1 259 260
128 1 260 261
129 1 261 262
130 1 263 264
131 1 264 265
132 1 265 266
133 1 267 268
134 1 268 269
135 1 269 270
136 1 271 272
137 1 272 273
138 1 273 274
139 1 275 276
140 1 276 277
141 1 277 278
142 1 279 280
143 1 280 281
144 1 281 282
145 1 283 284
146 1 284 285
147 1 285 286
148 1 287 288
149 1 288 289
150 1 289 290
151 1 291 292
152 1 292 293
153 1 293 294
154 1 295 296
155 1 296 297
156 1 297 298
157 1 299 300
158 1 300 301
159 1 301 302
160 1 303 304
161 1 304 305
162 1 305 306
163 1 307 308
164 1 308 309
165 1 309 310
166 1 311 312
167 1 312 313
168 1 313 314
169 1 315 316
170 1 316 317
171 1 317 318
172 1 319 320
173 1 320 321
174 1 321 322
175 1 323 324
176 1 324 325
177 1 325 326
178 1 327 328
179 1 328 329
180 1 329 330
181 1 331 332
182 1 332 333
183 1 333 334
184 1 335 336
185 1 336 337
186 1 337 338
187 1 339 340
188 1 340 341
189 1 341 342
190 1 343 344
191 1 344 345
192 1 345 346
193 1 347 348
194 1 348 349
195 1 349 350
196 1 351 352
197 1 352 353
198 1 353 354
199 1 355 356
200 1 356 357
201 1 357 358
202 1 359 360
203 1 360 361
204 1 361 362
205 1 363 364
206 1 364 365
207 1 365 366
208 1 367 368
209 1 368 369
210 1 369 370
211 1 371 372
212 1 372 373
213 1 373 374
214 1 375 376
215 1 376 377
216 1 377 378
217 1 379 380
218 1 380 381
219 1 381 382
220 1 383 384
221 1 384 385
222 1 385 386
223 1 387 388
224 1 388 389
225 1 389 390
226 1 391 392
227 1 392 393
228 1 393 394
229 1 395 396
230 1 396 397
231 1 397 398
232 1 399 400
233 1 400 401
234 1 401 402
235 1 403 404
236 1 404 405
237 1 405 406
238 1 407 408
239 1 408 409
240 1 409 410
241 1 411 412
242 1 412 413
243 1 413 414
244 1 415 416
245 1 416 417
246 1 417 418
247 1 419 420
248 1 420 421
249 1 421 422
250 1 423 424
251 1 424 425
252 1 425 426
253 1 427 428
254 1 428 429
255 1 429 430
256 1 431 432
257 1 432 433
258 1 433 434
259 1 435 436
260 1 436 437
261 1 437 438
262 1 439 440
263 1 440 441
264 1 441 442
265 1 443 444
266 1 444 445
267 1 445 446
268 1 447 448
269 1 448 449
270 1 449 450
271 1 451 452
272 1 452 453
273 1 453 454
274 1 455 456
275 1 456 457
276 1 457 458
277 1 459 460
278 1 460 461
279 1 461 462
280 1 463 464
281 1 464 465
282 1 465 466
283 1 467 468
284 1 468 469
285 1 469 470
286 1 471 472
287 1 472 473
288 1 473 474
289 1 475 476
290 1 476 477
291 1 477 478
292 1 479 480
293 1 480 481
294 1 481 482
295 1 483 484
296 1 484 485
297 1 485 486
298 1 487 488
299 1 488 489
300 1 489 490
301 1 491 492
302 1 492 493
303 1 493 494
304 1 495 496
305 1 496 497
306 1 497 498
307 1 499 500
308 1 500 501
309 1 501 502
310 1 503 504
311 1 504 505
312 1 505 506
313 1 507 508
314 1 508 509
315 1 509 510
316 1 511 512
317 1 512 513
318 1 513 514
319 1 515 516
320 1 516 517
321 1 517 518
322 1 519 520
323 1 520 521
324 1 521 522
325 1 523 524
326 1 524 525
327 1 525 526
328 1 527 528
329 1 528 529
330 1 529 530
331 1 531 532
332 1 532 533
333 1 533 534
334 1 535 536
335 1 536 537
336 1 537 538
337 1 539 540
338 1 540 541
339 1 541 542
340 1 543 544
341 1 544 545
342 1 545 546
343 1 547 548
344 1 548 549
345 1 549 550
346 1 551 552
347 1 552 553
348 1 553 554
349 1 555 556
350 1 556 557
351 1 557 558
352 1 559 560
353 1 560 561
354 1 561 562
355 1 563 564
356 1 564 565
357 1 565 566
358 1 567 568
359 1 568 569
360 1 569 570
361 1 571 572
362 1 572 573
363 1 573 574
364 1 575 576
365 1 576 577
366 1 577 578
367 1 579 580
368 1 580 581
369 1 581 582
370 1 583 584
371 1 584 585
372 1 585 586
373 1 587 588
374 1 588 589
375 1 589 590
376 1 591 592
377 1 592 593
378 1 593 594
379 1 595 596
380 1 596 597
381 1 597 598
382 1 599 600
383 1 600 601
384 1 601 602
385 1 603 604
386 1 604 605
387 1 605 606
388 1 607 608
389 1 608 609
390 1 609 610
391 1 611 612
392 1 612 613
393 1 613 614
394 1 615 616
395 1 616 617
396 1 617 618
397 1 619 620
398 1 620 621
399 1 621 622
400 1 623 624
401 1 624 625
402 1 625 626
403 1 627 628
404 1 628 629
405 1 629 630
406 1 631 632
407 1 632 633
408 1 633 634
409 1 635 636
410 1 636 637
411 1 637 638
412 1 639 640
413 1 640 641
414 1 641 642
415 1 643 644
416 1 644 645
417 1 645 646
418 1 647 648
419 1 648 649
420 1 649 650
421 1 651 652
422 1 652 653
423 1 653 654
424 1 655 656
425 1 656 657
426 1 657 658
427 1 659 660
428 1 660 661
429 1 661 662
430 1 663 664
431 1 664 665
432 1 665 666
433 1 667 668
434 1 668 669
435 1 669 670
436 1 671 672
437 1 672 673
438 1 673 674
439 1 675 676
440 1 676 677
441 1 677 678
442 1 679 680
443 1 680 681
444 1 681 682
445 1 683 684
446 1 684 685
447 1 685 686
448 1 687 688
449 1 688 689
450 1 689 690
451 1 691 692
452 1 692 693
453 1 693 694
454 1 695 696
455 1 696 697
456 1 697 698
457 1 699 700
458 1 700 701
459 1 701 702
460 1 703 704
461 1 704 705
462 1 705 706
463 1 707 708
464 1 708 709
465 1 709 710
466 1 711 712
467 1 712 713
468 1 713 714
469 1 715 716
470 1 716 717
471 1 717 718
472 1 719 720
473 1 720 721
474 1 721 722
475 1 723 724
476 1 724 725
477 1 725 726
478 1 727 728
479 1 728 729
480 1 729 730
481 1 731 732
482 1 732 733
483 1 733 734
484 1 735 736
485 1 736 737
486 1 737 738
487 1 739 740
488 1 740 741
489 1 741 742
490 1 743 744
491 1 744 745
492 1 745 746
493 1 747 748
494 1 748 749
495 1 749 750
496 1 751 752
497 1 752 753
498 1 753 754
499 1 755 756
500 1 756 757
501 1 757 758
502 1 759 760
503 1 760 761
504 1 761 762
505 1 763 764
506 1 764 765
507 1 765 766
508 1 767 768
509 1 768 769
510 1 769 770
511 1 771 772
512 1 772 773
513 1 773 774
514 1 775 776
515 1 776 777
516 1 777 778
517 1 779 780
518 1 780 781
519 1 781 782
520 1 783 784
521 1 784 785
522 1 785 786
523 1 787 788
524 1 788 789
525 1 789 790
526 1 791 792
527 1 792 793
528 1 793 794
529 1 795 796
530 1 796 797
531 1 797 798
532 1 799 800
533 1 800 801
534 1 801 802
535 1 803 804
536 1 804 805
537 1 805 806
538 1 807 808
539 1 808 809
540 1 809 810
541 1 811 812
542 1 812 813
543 1 813 814
544 1 815 816
545 1 816 817
546 1 817 818
547 1 819 820
548 1 820 821
549 1 821 822
550 1 823 824
551 1 824 825
552 1 825 826
553 1 827 828
554 1 828 829
555 1 829 830
556 1 831 832
557 1 832 833
558 1 833 834
559 1 835 836
560 1 836 837
561 1 837 838
562 1 839 840
563 1 840 841
564 1 841 842
565 1 843 844
566 1 844 845
567 1 845 846
568 1 847 848
569 1 848 849
570 1 849 850
571 1 851 852
572 1 852 853
573 1 853 854
574 1 855 856
575 1 856 857
576 1 857 858
577 1 859 860
578 1 860 861
579 1 861 862
580 1 863 864
581 1 864 865
582 1 865 866
583 1 867 868
584 1 868 869
585 1 869 870
586 1 871 872
587 1 872 873
588 1 873 874
589 1 875 876
590 1 876 877
591 1 877 878
592 1 879 880
593 1 880 881
594 1 881 882
595 1 883 884
596 1 884 885
597 1 885 886
598 1 887 888
599 1 888 889
600 1 889 890
601 1 891 892
602 1 892 893
603 1 893 894
604 1 895 896
605 1 896 897
606 1 897 898
607 1 899 900
608 1 900 901
609 1 901 902
610 1 903 904
611 1 904 905
612 1 905 906
613 1 907 908
614 1 908 909
615 1 909 910
616 1 911 912
617 1 912 913
618 1 913 914
619 1 915 916
620 1 916 917
621 1 917 918
622 1 919 920
623 1 920 921
624 1 921 922
625 1 923 924
626 1 924 925
627 1 925 926
628 1 927 928
629 1 928 929
630 1 929 930
631 1 931 932
632 1 932 933
633 1 933 934
634 1 935 936
635 1 936 937
636 1 937 938
637 1 939 940
638 1 940 941
639 1 941 942
640 1 943 944
641 1 944 945
642 1 945 946
643 1 947 948
644 1 948 949
645 1 949 950
646 1 951 952
647 1 952 953
648 1 953 954
649 1 955 956
650 1 956 957
651 1 957 958
652 1 959 960
653 1 960 961
654 1 961 962
655 1 963 964
656 1 964 965
657 1 965 966
658 1 967 968
659 1 968 969
660 1 969 970
661 1 971 972
662 1 972 973
663 1 973 974
664 1 975 976
665 1 976 977
666 1 977 978
667 1 979 980
668 1 980 981
669 1 981 982
670 1 983 984
671 1 984 985
672 1 985 986
673 1 987 988
674 1 988 989
675 1 989 990
676 1 991 992
677 1 992 993
678 1 993 994
679 1 995 996
680 1 996 997
681 1 997 998
682 1 999 1000
683 1 1000 1001
684 1 1001 1002
685 1 1003 1004
686 1 1004 1005
687 1 1005 1006
688 1 1007 1008
689 1 1008 1009
690 1 1009 1010
691 1 1011 1012
692 1 1012 1013
693 1 1013 1014
694 1 1015 1016
695 1 1016 1017
696 1 1017 1018
697 1 1019 1020
698 1 1020 1021
699 1 1021 1022
700 1 1023 1024
701 1 1024 1025
702 1 1025 1026
703 1 1027 1028
704 1 1028 1029
705 1 1029 1030
706 1 1031 1032
707 1 1032 1033
708 1 1033 1034
709 1 1035 1036
710 1 1036 1037
711 1 1037 1038
712 1 1039 1040
713 1 1040 1041
714 1 1041 1042
715 1 1043 1044
716 1 1044 1045
717 1 1045 1046
718 1 1047 1048
719 1 1048 1049
720 1 1049 1050
721 1 1051 1052
722 1 1052 1053
723 1 1053 1054
724 1 1055 1056
725 1 1056 1057
726 1 1057 1058
727 1 1059 1060
728 1 1060 1061
729 1 1061 1062
730 1 1063 1064
731 1 1064 1065
732 1 1065 1066
733 1 1067 1068
734 1 1068 1069
735 1 1069 1070
736 1 1071 1072
737 1 1072 1073
738 1 1073 1074
739 1 1075 1076
740 1 1076 1077
741 1 1077 1078
742 1 1079 1080
743 1 1080 1081
744 1 1081 1082
745 1 1083 1084
746 1 1084 1085
747 1 1085 1086
748 1 1087 1088
749 1 1088 1089
750 1 1089 1090
751 1 1091 1092
752 1 1092 1093
753 1 1093 1094
754 1 1095 1096
755 1 1096 1097
756 1 1097 1098
757 1 1099 1100
758 1 1100 1101
759 1 1101 1102
760 1 1103 1104
761 1 1104 1105
762 1 1105 1106
763 1 1107 1108
764 1 1108 1109
765 1 1109 1110
766 1 1111 1112
767 1 1112 1113
768 1 1113 1114
769 1 1115 1116
770 1 1116 1117
771 1 1117 1118
772 1 1119 1120
773 1 1120 1121
774 1 1121 1122
775 1 1123 1124
776 1 1124 1125
777 1 1125 1126
778 1 1127 1128
779 1 1128 1129
780 1 1129 1130
781 1 1131 1132
782 1 1132 1133
783 1 1133 1134
784 1 1135 1136
785 1 1136 1137
786 1 1137 1138
787 1 1139 1140
788 1 1140 1141
789 1 1141 1142
790 1 1143 1144
791 1 1144 1145
792 1 1145 1146
793 1 1147 1148
794 1 1148 1149
795 1 1149 1150
796 1 1151 1152
797 1 1152 1153
798 1 1153 1154
799 1 1155 1156
800 1 1156 1157
801 1 1157 1158
802 1 1159 1160
803 1 1160 1161
804 1 1161 1162
805 1 1163 1164
806 1 1164 1165
807 1 1165 1166
808 1 1167 1168
809 1 1168 1169
810 1 1169 1170
811 1 1171 1172
812 1 1172 1173
813 1 1173 1174
814 1 1175 1176
815 1 1176 1177
816 1 1177 1178
817 1 1179 1180
818 1 1180 1181
819 1 1181 1182
820 1 1183 1184
821 1 1184 1185
822 1 1185 1186
823 1 1187 1188
824 1 1188 1189
825 1 1189 1190
826 1 1191 1192
827 1 1192 1193
828 1 1193 1194
829 1 1195 1196
830 1 1196 1197
831 1 1197 1198
832 1 1199 1200
833 1 1200 1201
834 1 1201 1202
835 1 1203 1204
836 1 1204 1205
837 1 1205 1206
838 1 1207 1208
839 1 1208 1209
840 1 1209 1210
841 1 1211 1212
842 1 1212 1213
843 1 1213 1214
844 1 1215 1216
845 1 1216 1217
846 1 1217 1218
847 1 1219 1220
848 1 1220 1221
849 1 1221 1222
850 1 1223 1224
851 1 1224 1225
852 1 1225 1226
853 1 1227 1228
854 1 1228 1229
855 1 1229 1230
856 1 1231 1232
857 1 1232 1233
858 1 1233 1234
859 1 1235 1236
860 1 1236 1237
861 1 1237 1238
862 1 1239 1240
863 1 1240 1241
864 1 1241 1242
865 1 1243 1244
866 1 1244 1245
867 1 1245 1246
868 1 1247 1248
869 1 1248 1249
870 1 1249 1250
871 1 1251 1252
872 1 1252 1253
873 1 1253 1254
874 1 1255 1256
875 1 1256 1257
876 1 1257 1258
877 1 1259 1260
878 1 1260 1261
879 1 1261 1262
880 1 1263 1264
881 1 1264 1265
882 1 1265 1266
883 1 1267 1268
884 1 1268 1269
885 1 1269 1270
886 1 1271 1272
887 1 1272 1273
888 1 1273 1274
889 1 1275 1276
890 1 1276 1277
891 1 1277 1278
892 1 1279 1280
893 1 1280 1281
894 1 1281 1282
895 1 1283 1284
896 1 1284 1285
897 1 1285 1286
898 1 1287 1288
899 1 1288 1289
900 1 1289 1290
901 1 1291 1292
902 1 1292 1293
903 1 1293 1294
904 1 1295 1296
905 1 1296 1297
906 1 1297 1298
907 1 1299 1300
908 1 1300 1301
909 1 1301 1302
910 1 1303 1304
911 1 1304 1305
912 1 1305 1306
913 1 1307 1308
914 1 1308 1309
915 1 1309 1310
916 1 1311 1312
917 1 1312 1313
918 1 1313 1314
919 1 1315 1316
920 1 1316 1317
921 1 1317 1318
922 1 1319 1320
923 1 1320 1321
924 1 1321 1322
925 1 1323 1324
926 1 1324 1325
927 1 1325 1326
928 1 1327 1328
929 1 1328 1329
930 1 1329 1330
931 1 1331 1332
932 1 1332 1333
933 1 1333 1334
934 1 1335 1336
935 1 1336 1337
936 1 1337 1338
937 1 1339 1340
938 1 1340 1341
939 1 1341 1342
940 1 1343 1344
941 1 1344 1345
942 1 1345 1346
943 1 1347 1348
944 1 1348 1349
945 1 1349 1350
946 1 1351 1352
947 1 1352 1353
948 1 1353 1354
949 1 1355 1356
950 1 1356 1357
951 1 1357 1358
952 1 1359 1360
953 1 1360 1361
954 1 1361 1362
955 1 1363 1364
956 1 1364 1365
957 1 1365 1366
958 1 1367 1368
959 1 1368 1369
960 1 1369 1370
961 1 1371 1372
962 1 1372 1373
963 1 1373 1374
964 1 1375 1376
965 1 1376 1377
966 1 1377 1378
967 1 1379 1380
968 1 1380 1381
969 1 1381 1382
970 1 1383 1384
971 1 1384 1385
972 1 1385 1386
973 1 1387 1388
974 1 1388 1389
975 1 1389 1390
976 1 1391 1392
977 1 1392 1393
978 1 1393 1394
979 1 1395 1396
980 1 1396 1397
981 1 1397 1398
982 1 1399 1400
983 1 1400 1401
984 1 1401 1402
985 1 1403 1404
986 1 1404 1405
987 1 1405 1406
988 1 1407 1408
989 1 1408 1409
990 1 1409 1410
991 1 1411 1412
992 1 1412 1413
993 1 1413 1414
994 1 1415 1416
995 1 1416 1417
996 1 1417 1418
997 1 1419 1420
998 1 1420 1421
999 1 1421 1422
1000 1 1423 1424
1001 1 1424 1425
1002 1 1425 1426
1003 1 1427 1428
1004 1 1428 1429
1005 1 1429 1430
1006 1 1431 1432
1007 1 1432 1433
1008 1 1433 1434
1009 1 1435 1436
1010 1 1436 1437
1011 1 1437 1438
1012 1 1439 1440
1013 1 1440 1441
1014 1 1441 1442
1015 1 1443 1444
1016 1 1444 1445
1017 1 1445 1446
1018 1 1447 1448
1019 1 1448 1449
1020 1 1449 1450
1021 1 1451 1452
1022 1 1452 1453
1023 1 1453 1454
1024 1 1455 1456
1025 1 1456 1457
1026 1 1457 1458
1027 1 1459 1460
1028 1 1460 1461
1029 1 1461 1462
1030 1 1463 1464
1031 1 1464 1465
1032 1 1465 1466
1033 1 1467 1468
1034 1 1468 1469
1035 1 1469 1470
1036 1 1471 1472
1037 1 1472 1473
1038 1 1473 1474
1039 1 1475 1476
1040 1 1476 1477
1041 1 1477 1478
1042 1 1479 1480
1043 1 1480 1481
1044 1 1481 1482
1045 1 1483 1484
1046 1 1484 1485
1047 1 1485 1486
1048 1 1487 1488
1049 1 1488 1489
1050 1 1489 1490
1051 1 1491 1492
1052 1 1492 1493
1053 1 1493 1494
1054 1 1495 1496
1055 1 1496 1497
1056 1 1497 1498
1057 1 1499 1500
1058 1 1500 1501
1059 1 1501 1502
1060 1 1503 1504
1061 1 1504 1505
1062 1 1505 1506
1063 1 1507 1508
1064 1 1508 1509
1065 1 1509 1510
1066 1 1511 1512
1067 1 1512 1513
1068 1 1513 1514
1069 1 1515 1516
1070 1 1516 1517
1071 1 1517 1518
1072 1 1519 1520
1073 1 1520 1521
1074 1 1521 1522
1075 1 1523 1524
1076 1 1524 1525
1077 1 1525 1526
1078 1 1527 1528
1079 1 1528 1529
1080 1 1529 1530
1081 1 1531 1532
1082 1 1532 1533
1083 1 1533 1534
1084 1 1535 1536
1085 1 1536 1537
1086 1 1537 1538
1087 1 1539 1540
1088 1 1540 1541
1089 1 1541 1542
1090 1 1543 1544
1091 1 1544 1545
1092 1 1545 1546
1093 1 1547 1548
1094 1 1548 1549
1095 1 1549 1550
1096 1 1551 1552
1097 1 1552 1553
1098 1 1553 1554
1099 1 1555 1556
1100 1 1556 1557
1101 1 1557 1558
1102 1 1559 1560
1103 1 1560 1561
1104 1 1561 1562
1105 1 1563 1564
1106 1 1564 1565
1107 1 1565 1566
1108 1 1567 1568
1109 1 1568 1569
1110 1 1569 1570
1111 1 1571 1572
1112 1 1572 1573
1113 1 1573 1574
1114 1 1575 1576
1115 1 1576 1577
1116 1 1577 1578
1117 1 1579 1580
1118 1 1580 1581
1119 1 1581 1582
1120 1 1583 1584
1121 1 1584 1585
1122 1 1585 1586
1123 1 1587 1588
1124 1 1588 1589
1125 1 1589 1590
1126 1 1591 1592
1127 1 1592 1593
1128 1 1593 1594
1129 1 1595 1596
1130 1 1596 1597
1131 1 1597 1598
1132 1 1599 1600
1133 1 1600 1601
1134 1 1601 1602
1135 1 1603 1604
1136 1 1604 1605
1137 1 1605 1606
1138 1 1607 1608
1139 1 1608 1609
1140 1 1609 1610
1141 1 1611 1612
1142 1 1612 1613
1143 1 1613 1614
1144 1 1615 1616
1145 1 1616 1617
1146 1 1617 1618
1147 1 1619 1620
1148 1 1620 1621
1149 1 1621 1622
1150 1 1623 1624
1151 1 1624 1625
1152 1 1625 1626
1153 1 1627 1628
1154 1 1628 1629
1155 1 1629 1630
1156 1 1631 1632
1157 1 1632 1633
1158 1 1633 1634
1159 1 1635 1636
1160 1 1636 1637
1161 1 1637 1638
1162 1 1639 1640
1163 1 1640 1641
1164 1 1641 1642
1165 1 1643 1644
1166 1 1644 1645
1167 1 1645 1646
1168 1 1647 1648
1169 1 1648 1649
1170 1 1649 1650
1171 1 1651 1652
1172 1 1652 1653
1173 1 1653 1654
1174 1 1655 1656
1175 1 1656 1657
1176 1 1657 1658
1177 1 1659 1660
1178 1 1660 1661
1179 1 1661 1662
1180 1 1663 1664
1181 1 1664 1665
1182 1 1665 1666
1183 1 1667 1668
1184 1 1668 1669
1185 1 1669 1670
1186 1 1671 1672
1187 1 1672 1673
1188 1 1673 1674
1189 1 1675 1676
1190 1 1676 1677
1191 1 1677 1678
1192 1 1679 1680
1193 1 1680 1681
1194 1 1681 1682
1195 1 1683 1684
1196 1 1684 1685
1197 1 1685 1686
1198 1 1687 1688
1199 1 1688 1689
1200 1 1689 1690
1201 1 1691 1692
1202 1 1692 1693
1203 1 1693 1694
1204 1 1695 1696
1205 1 1696 1697
1206 1 1697 1698
1207 1 1699 1700
1208 1 1700 1701
1209 1 1701 1702
1210 1 1703 1704
1211 1 1704 1705
1212 1 1705 1706
1213 1 1707 1708
1214 1 1708 1709
1215 1 1709 1710
1216 1 1711 1712
1217 1 1712 1713
1218 1 1713 1714
1219 1 1715 1716
1220 1 1716 1717
1221 1 1717 1718
1222 1 1719 1720
1223 1 1720 1721
1224 1 1721 1722
1225 1 1723 1724
1226 1 1724 1725
1227 1 1725 1726
1228 1 1727 1728
1229 1 1728 1729
1230 1 1729 1730
1231 1 1731 1732
1232 1 1732 1733
1233 1 1733 1734
1234 1 1735 1736
1235 1 1736 1737
1236 1 1737 1738
1237 1 1739 1740
1238 1 1740 1741
1239 1 1741 1742
1240 1 1743 1744
1241 1 1744 1745
1242 1 1745 1746
1243 1 1747 1748
1244 1 1748 1749
1245 1 1749 1750
1246 1 1751 1752
1247 1 1752 1753
1248 1 1753 1754
1249 1 1755 1756
1250 1 1756 1757
1251 1 1757 1758
1252 1 1759 1760
1253 1 1760 1761
1254 1 1761 1762
1255 1 1763 1764
1256 1 1764 1765
1257 1 1765 1766
1258 1 1767 1768
1259 1 1768 1769
1260 1 1769 1770
1261 1 1771 1772
1262 1 1772 1773
1263 1 1773 1774
1264 1 1775 1776
1265 1 1776 1777
1266 1 1777 1778
1267 1 1779 1780
1268 1 1780 1781
1269 1 1781 1782
1270 1 1783 1784
1271 1 1784 1785
1272 1 1785 1786
1273 1 1787 1788
1274 1 1788 1789
1275 1 1789 1790
1276 1 1791 1792
1277 1 1792 1793
1278 1 1793 1794
1279 1 1795 1796
1280 1 1796 1797
1281 1 1797 1798
1282 1 1799 1800
1283 1 1800 1801
1284 1 1801 1802
1285 1 1803 1804
1286 1 1804 1805
1287 1 1805 1806
1288 1 1807 1808
1289 1 1808 1809
1290 1 1809 1810
1291 1 1811 1812
1292 1 1812 1813
1293 1 1813 1814
1294 1 1815 1816
1295 1 1816 1817
1296 1 1817 1818
1297 1 1819 1820
1298 1 1820 1821
1299 1 1821 1822
1300 1 1823 1824
1301 1 1824 1825
1302 1 1825 1826
1303 1 1827 1828
1304 1 1828 1829
1305 1 1829 1830
1306 1 1831 1832
1307 1 1832 1833
1308 1 1833 1834
1309 1 1835 1836
1310 1 1836 1837
1311 1 1837 1838
1312 1 1839 1840
1313 1 1840 1841
1314 1 1841 1842
1315 1 1843 1844
1316 1 1844 1845
1317 1 1845 1846
1318 1 1847 1848
1319 1 1848 1849
1320 1 1849 1850
1321 1 1851 1852
1322 1 1852 1853
1323 1 1853 1854
1324 1 1855 1856
1325 1 1856 1857
1326 1 1857 1858
1327 1 1859 1860
1328 1 1860 1861
1329 1 1861 1862
1330 1 1863 1864
1331 1 1864 1865
1332 1 1865 1866
1333 1 1867 1868
1334 1 1868 1869
1335 1 1869 1870
1336 1 1871 1872
1337 1 1872 1873
1338 1 1873 1874
1339 1 1875 1876
1340 1 1876 1877
1341 1 1877 1878
1342 1 1879 1880
1343 1 1880 1881
1344 1 1881 1882
1345 1 1883 1884
1346 1 1884 1885
1347 1 1885 1886
1348 1 1887 1888
1349 1 1888 1889
1350 1 1889 1890
1351 1 1891 1892
1352 1 1892 1893
1353 1 1893 1894
1354 1 1895 1896
1355 1 1896 1897
1356 1 1897 1898
1357 1 1899 1900
1358 1 1900 1901
1359 1 1901 1902
1360 1 1903 1904
1361 1 1904 1905
1362 1 1905 1906
1363 1 1907 1908
1364 1 1908 1909
1365 1 1909 1910
1366 1 1911 1912
1367 1 1912 1913
1368 1 1913 1914
1369 1 1915 1916
1370 1 1916 1917
1371 1 1917 1918
1372 1 1919 1920
1373 1 1920 1921
1374 1 1921 1922
1375 1 1923 1924
1376 1 1924 1925
1377 1 1925 1926
1378 1 1927 1928
1379 1 1928 1929
1380 1 1929 1930
1381 1 1931 1932
1382 1 1932 1933
1383 1 1933 1934
1384 1 1935 1936
1385 1 1936 1937
1386 1 1937 1938
1387 1 1939 1940
1388 1 1940 1941
1389 1 1941 1942
1390 1 1943 1944
1391 1 1944 1945
1392 1 1945 1946
1393 1 1947 1948
1394 1 1948 1949
1395 1 1949 1950
1396 1 1951 1952
1397 1 1952 1953
1398 1 1953 1954
1399 1 1955 1956
1400 1 1956 1957
1401 1 1957 1958
1402 1 1959 1960
1403 1 1960 1961
1404 1 1961 1962
1405 1 1963 1964
1406 1 1964 1965
1407 1 1965 1966
1408 1 1967 1968
1409 1 1968 1969
1410 1 1969 1970
1411 1 1971 1972
1412 1 1972 1973
1413 1 1973 1974
1414 1 1975 1976
1415 1 1976 1977
1416 1 1977 1978
1417 1 1979 1980
1418 1 1980 1981
1419 1 1981 1982
1420 1 1983 1984
1421 1 1984 1985
1422 1 1985 1986
1423 1 1987 1988
1424 1 1988 1989
1425 1 1989 1990
1426 1 1991 1992
1427 1 1992 1993
1428 1 1993 1994
1429 1 1995 1996
1430 1 1996 1997
1431 1 1997 1998
1432 1 1999 2000
1433 1 2000 2001
1434 1 2001 2002
1435 1 2003 2004
1436 1 2004 2005
1437 1 2005 2006
1438 1 2007 2008
1439 1 2008 2009
1440 1 2009 2010
1441 1 2011 2012
1442 1 2012 2013
1443 1 2013 2014
1444 1 2015 2016
1445 1 2016 2017
1446 1 2017 2018
1447 1 2019 2020
1448 1 2020 2021
1449 1 2021 2022
1450 1 2023 2024
1451 1 2024 2025
1452 1 2025 2026
1453 1 2027 2028
1454 1 2028 2029
1455 1 2029 2030
1456 1 2031 2032
1457 1 2032 2033
1458 1 2033 2034
1459 1 2035 2036
1460 1 2036 2037
1461 1 2037 2038
1462 1 2039 2040
1463 1 2040 2041
1464 1 2041 2042
1465 1 2043 2044
1466 1 2044 2045
1467 1 2045 2046
1468 1 2047 2048
1469 1 2048 2049
1470 1 2049 2050
1471 1 2051 2052
1472 1 2052 2053
1473 1 2053 2054
1474 1 2055 2056
1475 1 2056 2057
1476 1 2057 2058
1477 1 2059 2060
1478 1 2060 2061
1479 1 2061 2062
1480 1 2063 2064
1481 1 2064 2065
1482 1 2065 2066
1483 1 2067 2068
1484 1 2068 2069
1485 1 2069 2070
1486 1 2071 2072
1487 1 2072 2073
1488 1 2073 2074
1489 1 2075 2076
1490 1 2076 2077
1491 1 2077 2078
1492 1 2079 2080
1493 1 2080 2081
1494 1 2081 2082
1495 1 2083 2084
1496 1 2084 2085
1497 1 2085 2086
1498 1 2087 2088
1499 1 2088 2089
1500 1 2089 2090
1501 1 2091 2092
1502 1 2092 2093
1503 1 2093 2094
1504 1 2095 2096
1505 1 2096 2097
1506 1 2097 2098
1507 1 2099 2100
1508 1 2100 2101
1509 1 2101 2102
1510 1 2103 2104
1511 1 2104 2105
1512 1 2105 2106
1513 1 2107 2108
1514 1 2108 2109
1515 1 2109 2110
1516 1 2111 2112
1517 1 2112 2113
1518 1 2113 2114
1519 1 2115 2116
1520 1 2116 2117
1521 1 2117 2118
1522 1 2119 2120
1523 1 2120 2121
1524 1 2121 2122
1525 1 2123 2124
1526 1 2124 2125
1527 1 2125 2126
1528 1 2127 2128
1529 1 2128 2129
1530 1 2129 2130
1531 1 2131 2132
1532 1 2132 2133
1533 1 2133 2134
1534 1 2135 2136
1535 1 2136 2137
1536 1 2137 2138
1537 1 2139 2140
1538 1 2140 2141
1539 1 2141 2142
1540 1 2143 2144
1541 1 2144 2145
1542 1 2145 2146
1543 1 2147 2148
1544 1 2148 2149
1545 1 2149 2150
1546 1 2151 2152
1547 1 2152 2153
1548 1 2153 2154
1549 1 2155 2156
1550 1 2156 2157
1551 1 2157 2158
1552 1 2159 2160
1553 1 2160 2161
1554 1 2161 2162
1555 1 2163 2164
1556 1 2164 2165
1557 1 2165 2166
1558 1 2167 2168
1559 1 2168 2169
1560 1 2169 2170
1561 1 2171 2172
1562 1 2172 2173
1563 1 2173 2174
1564 1 2175 2176
1565 1 2176 2177
1566 1 2177 2178
1567 1 2179 2180
1568 1 2180 2181
1569 1 2181 2182
1570 1 2183 2184
1571 1 2184 2185
1572 1 2185 2186
1573 1 2187 2188
1574 1 2188 2189
1575 1 2189 2190
1576 1 2191 2192
1577 1 2192 2193
1578 1 2193 2194
1579 1 2195 2196
1580 1 2196 2197
1581 1 2197 2198
1582 1 2199 2200
1583 1 2200 2201
1584 1 2201 2202
1585 1 2203 2204
1586 1 2204 2205
1587 1 2205 2206
1588 1 2207 2208
1589 1 2208 2209
1590 1 2209 2210
1591 1 2211 2212
1592 1 2212 2213
1593 1 2213 2214
1594 1 2215 2216
1595 1 2216 2217
1596 1 2217 2218
1597 1 2219 2220
1598 1 2220 2221
1599 1 2221 2222
1600 1 2223 2224
1601 1 2224 2225
1602 1 2225 2226
1603 1 2227 2228
1604 1 2228 2229
1605 1 2229 2230
1606 1 2231 2232
1607 1 2232 2233
1608 1 2233 2234
1609 1 2235 2236
1610 1 2236 2237
1611 1 2237 2238
1612 1 2239 2240
1613 1 2240 2241
1614 1 2241 2242
1615 1 2243 2244
1616 1 2244 2245
1617 1 2245 2246
1618 1 2247 2248
1619 1 2248 2249
1620 1 2249 2250
1621 1 2251 2252
1622 1 2252 2253
1623 1 2253 2254
1624 1 2255 2256
1625 1 2256 2257
1626 1 2257 2258
1627 1 2259 2260
1628 1 2260 2261
1629 1 2261 2262
1630 1 2263 2264
1631 1 2264 2265
1632 1 2265 2266
1633 1 2267 2268
1634 1 2268 2269
1635 1 2269 2270
1636 1 2271 2272
1637 1 2272 2273
1638 1 2273 2274
1639 1 2275 2276
1640 1 2276 2277
1641 1 2277 2278
1642 1 2279 2280
1643 1 2280 2281
1644 1 2281 2282
1645 1 2283 2284
1646 1 2284 2285
1647 1 2285 2286
1648 1 2287 2288
1649 1 2288 2289
1650 1 2289 2290
1651 1 2291 2292
1652 1 2292 2293
1653 1 2293 2294
1654 1 2295 2296
1655 1 2296 2297
1656 1 2297 2298
1657 1 2299 2300
1658 1 2300 2301
1659 1 2301 2302
1660 1 2303 2304
1661 1 2304 2305
1662 1 2305 2306
1663 1 2307 2308
1664 1 2308 2309
1665 1 2309 2310
1666 1 2311 2312
1667 1 2312 2313
1668 1 2313 2314
1669 1 2315 2316
1670 1 2316 2317
1671 1 2317 2318
1672 1 2319 2320
1673 1 2320 2321
1674 1 2321 2322
1675 1 2323 2324
1676 1 2324 2325
1677 1 2325 2326
1678 1 2327 2328
1679 1 2328 2329
1680 1 2329 2330
1681 1 2331 2332
1682 1 2332 2333
1683 1 2333 2334
1684 1 2335 2336
1685 1 2336 2337
1686 1 2337 2338
1687 1 2339 2340
1688 1 2340 2341
1689 1 2341 2342
1690 1 2343 2344
1691 1 2344 2345
1692 1 2345 2346
1693 1 2347 2348
1694 1 2348 2349
1695 1 2349 2350
1696 1 2351 2352
1697 1 2352 2353
1698 1 2353 2354
1699 1 2355 2356
1700 1 2356 2357
1701 1 2357 2358
1702 1 2359 2360
1703 1 2360 2361
1704 1 2361 2362
1705 1 2363 2364
1706 1 2364 2365
1707 1 2365 2366
1708 1 2367 2368
1709 1 2368 2369
1710 1 2369 2370
1711 1 2371 2372
1712 1 2372 2373
1713 1 2373 2374
1714 1 2375 2376
1715 1 2376 2377
1716 1 2377 2378
1717 1 2379 2380
1718 1 2380 2381
1719 1 2381 2382
1720 1 2383 2384
1721 1 2384 2385
1722 1 2385 2386
1723 1 2387 2388
1724 1 2388 2389
1725 1 2389 2390
1726 1 2391 2392
1727 1 2392 2393
1728 1 2393 2394
1729 1 2395 2396
1730 1 2396 2397
1731 1 2397 2398
1732 1 2399 2400
1733 1 2400 2401
1734 1 2401 2402
1735 1 2403 2404
1736 1 2404 2405
1737 1 2405 2406
1738 1 2407 2408
1739 1 2408 2409
1740 1 2409 2410
1741 1 2411 2412
1742 1 2412 2413
1743 1 2413 2414
1744 1 2415 2416
1745 1 2416 2417
1746 1 2417 2418
1747 1 2419 2420
1748 1 2420 2421
1749 1 2421 2422
1750 1 2423 2424
1751 1 2424 2425
1752 1 2425 2426
1753 1 2427 2428
1754 1 2428 2429
1755 1 2429 2430
1756 1 2431 2432
1757 1 2432 2433
1758 1 2433 2434
1759 1 2435 2436
1760 1 2436 2437
1761 1 2437 2438
1762 1 2439 2440
1763 1 2440 2441
1764 1 2441 2442
1765 1 2443 2444
1766 1 2444 2445
1767 1 2445 2446
1768 1 2447 2448
1769 1 2448 2449
1770 1 2449 2450
1771 1 2451 2452
1772 1 2452 2453
1773 1 2453 2454
1774 1 2455 2456
1775 1 2456 2457
1776 1 2457 2458
1777 1 2459 2460
1778 1 2460 2461
1779 1 2461 2462
1780 1 2463 2464
1781 1 2464 2465
1782 1 2465 2466
1783 1 2467 2468
1784 1 2468 2469
1785 1 2469 2470
1786 1 2471 2472
1787 1 2472 2473
1788 1 2473 2474
1789 1 2475 2476
1790 1 2476 2477
1791 1 2477 2478
1792 1 2479 2480
1793 1 2480 2481
1794 1 2481 2482
1795 1 2483 2484
1796 1 2484 2485
1797 1 2485 2486
1798 1 2487 2488
1799 1 2488 2489
1800 1 2489 2490
1801 1 2491 2492
1802 1 2492 2493
1803 1 2493 2494
1804 1 2495 2496
1805 1 2496 2497
1806 1 2497 2498
1807 1 2499 2500
1808 1 2500 2501
1809 1 2501 2502
1810 1 2503 2504
1811 1 2504 2505
1812 1 2505 2506
1813 1 2507 2508
1814 1 2508 2509
1815 1 2509 2510
1816 1 2511 2512
1817 1 2512 2513
1818 1 2513 2514
1819 1 2515 2516
1820 1 2516 2517
1821 1 2517 2518
1822 1 2519 2520
1823 1 2520 2521
1824 1 2521 2522
1825 1 2523 2524
1826 1 2524 2525
1827 1 2525 2526
1828 1 2527 2528
1829 1 2528 2529
1830 1 2529 2530
1831 1 2531 2532
1832 1 2532 2533
1833 1 2533 2534
1834 1 2535 2536
1835 1 2536 2537
1836 1 2537 2538
1837 1 2539 2540
1838 1 2540 2541
1839 1 2541 2542
1840 1 2543 2544
1841 1 2544 2545
1842 1 2545 2546
1843 1 2547 2548
1844 1 2548 2549
1845 1 2549 2550
1846 1 2551 2552
1847 1 2552 2553
1848 1 2553 2554
1849 1 2555 2556
1850 1 2556 2557
1851 1 2557 2558
1852 1 2559 2560
1853 1 2560 2561
1854 1 2561 2562
1855 1 2563 2564
1856 1 2564 2565
1857 1 2565 2566
1858 1 2567 2568
1859 1 2568 2569
1860 1 2569 2570
1861 1 2571 2572
1862 1 2572 2573
1863 1 2573 2574
1864 1 2575 2576
1865 1 2576 2577
1866 1 2577 2578
1867 1 2579 2580
1868 1 2580 2581
1869 1 2581 2582
1870 1 2583 2584
1871 1 2584 2585
1872 1 2585 2586
1873 1 2587 2588
1874 1 2588 2589
1875 1 2589 2590
1876 1 2591 2592
1877 1 2592 2593
1878 1 2593 2594
1879 1 2595 2596
1880 1 2596 2597
1881 1 2597 2598
1882 1 2599 2600
1883 1 2600 2601
1884 1 2601 2602
1885 1 2603 2604
1886 1 2604 2605
1887 1 2605 2606
1888 1 2607 2608
1889 1 2608 2609
1890 1 2609 2610
1891 1 2611 2612
1892 1 2612 2613
1893 1 2613 2614
1894 1 2615 2616
1895 1 2616 2617
1896 1 2617 2618
1897 1 2619 2620
1898 1 2620 2621
1899 1 2621 2622
1900 1 2623 2624
1901 1 2624 2625
1902 1 2625 2626
1903 1 2627 2628
1904 1 2628 2629
1905 1 2629 2630
1906 1 2631 2632
1907 1 2632 2633
1908 1 2633 2634
1909 1 2635 2636
1910 1 2636 2637
1911 1 2637 2638
1912 1 2639 2640
1913 1 2640 2641
1914 1 2641 2642
1915 1 2643 2644
1916 1 2644 2645
1917 1 2645 2646
1918 1 2647 2648
1919 1 2648 2649
1920 1 2649 2650
1921 1 2651 2652
1922 1 2652 2653
1923 1 2653 2654
1924 1 2655 2656
1925 1 2656 2657
1926 1 2657 2658
1927 1 2659 2660
1928 1 2660 2661
1929 1 2661 2662
1930 1 2663 2664
1931 1 2664 2665
1932 1 2665 2666
1933 1 2667 2668
1934 1 2668 2669
1935 1 2669 2670
1936 1 2671 2672
1937 1 2672 2673
1938 1 2673 2674
1939 1 2675 2676
1940 1 2676 2677
1941 1 2677 2678
1942 1 2679 2680
1943 1 2680 2681
1944 1 2681 2682
1945 1 2688 2689
1946 1 2689 2690
1947 1 2690 2691
1948 1 2692 2693
1949 1 2693 2694
1950 1 2694 2695
1951 1 2696 2697
1952 1 2697 2698
1953 1 2698 2699
1954 1 2700 2701
1955 1 2701 2702
1956 1 2702 2703
1957 1 2704 2705
1958 1 2705 2706
1959 1 2706 2707
1960 1 2708 2709
1961 1 2709 2710
1962 1 2710 2711
1963 1 2712 2713
1964 1 2713 2714
1965 1 2714 2715
1966 1 2716 2717
1967 1 2717 2718
1968 1 2718 2719
1969 1 2720 2721
1970 1 2721 2722
1971 1 2722 2723
1972 1 2724 2725
1973 1 2725 2726
1974 1 2726 2727
1975 1 2728 2729
1976 1 2729 2730
1977 1 2730 2731
1978 1 2732 2733
1979 1 2733 2734
1980 1 2734 2735
1981 1 2736 2737
1982 1 2737 2738
1983 1 2738 2739
1984 1 2740 2741
1985 1 2741 2742
1986 1 2742 2743
1987 1 2744 2745
1988 1 2745 2746
1989 1 2746 2747
1990 1 2748 2749
1991 1 2749 2750
1992 1 2750 2751
1993 1 2752 2753
1994 1 2753 2754
1995 1 2754 2755
1996 1 2756 2757
1997 1 2757 2758
1998 1 2758 2759
1999 1 2760 2761
2000 1 2761 2762
2001 1 2762 2763
2002 1 2764 2765
2003 1 2765 2766
2004 1 2766 2767
2005 1 2768 2769
2006 1 2769 2770
2007 1 2770 2771
2008 1 2772 2773
2009 1 2773 2774
2010 1 2774 2775
2011 1 2776 2777
2012 1 2777 2778
2013 1 2778 2779
2014 1 2780 2781
2015 1 2781 2782
2016 1 2782 2783
2017 1 2784 2785
2018 1 2785 2786
2019 1 2786 2787
2020 1 2788 2789
2021 1 2789 2790
2022 1 2790 2791
2023 1 2792 2793
2024 1 2793 2794
2025 1 2794 2795
2026 1 2796 2797
2027 1 2797 2798
2028 1 2798 2799
2029 1 2800 2801
2030 1 2801 2802
2031 1 2802 2803
2032 1 2804 2805
2033 1 2805 2806
2034 1 2806 2807
2035 1 2808 2809
2036 1 2809 2810
2037 1 2810 2811
2038 1 2812 2813
2039 1 2813 2814
2040 1 2814 2815
2041 1 2816 2817
2042 1 2817 2818
2043 1 2818 2819
2044 1 2820 2821
2045 1 2821 2822
2046 1 2822 2823
2047 1 2824 2825
2048 1 2825 2826
2049 1 2826 2827
2050 1 2828 2829
2051 1 2829 2830
2052 1 2830 2831
2053 1 2837 2838
2054 1 2838 2839
2055 1 2839 2840
2056 1 2841 2842
2057 1 2842 2843
2058 1 2843 2844
2059 1 2845 2846
2060 1 2846 2847
2061 1 2847 2848
2062 1 2849 2850
2063 1 2850 2851
2064 1 2851 2852
2065 1 2853 2854
2066 1 2854 2855
2067 1 2855 2856
2068 1 2857 2858
2069 1 2858 2859
2070 1 2859 2860
2071 1 2861 2862
2072 1 2862 2863
2073 1 2863 2864
2074 1 2865 2866
2075 1 2866 2867
2076 1 2867 2868
2077 1 2869 2870
2078 1 2870 2871
2079 1 2871 2872
2080 1 2873 2874
2081 1 2874 2875
2082 1 2875 2876
2083 1 2877 2878
2084 1 2878 2879
2085 1 2879 2880
2086 1 2881 2882
2087 1 2882 2883
2088 1 2883 2884
2089 1 2885 2886
2090 1 2886 2887
2091 1 2887 2888
2092 1 2889 2890
2093 1 2890 2891
2094 1 2891 2892
2095 1 2893 2894
2096 1 2894 2895
2097 1 2895 2896
2098 1 2897 2898
2099 1 2898 2899
2100 1 2899 2900
2101 1 2901 2902
2102 1 2902 2903
2103 1 2903 2904
2104 1 2905 2906
2105 1 2906 2907
2106 1 2907 2908
2107 1 2909 2910
2108 1 2910 2911
2109 1 2911 2912
2110 1 2913 2914
2111 1 2914 2915
2112 1 2915 2916
2113 1 2917 2918
2114 1 2918 2919
2115 1 2919 2920
2116 1 2921 2922
2117 1 2922 2923
2118 1 2923 2924
2119 1 2925 2926
2120 1 2926 2927
2121 1 2927 2928
2122 1 2929 2930
2123 1 2930 2931
2124 1 2931 2932
2125 1 2933 2934
2126 1 2934 2935
2127 1 2935 2936
2128 1 2937 2938
2129 1 2938 2939
2130 1 2939 2940
2131 1 2941 2942
2132 1 2942 2943
2133 1 2943 2944
2134 1 2945 2946
2135 1 2946 2947
2136 1 2947 2948
2137 1 2949 2950
2138 1 2950 2951
2139 1 2951 2952
2140 1 2953 2954
2141 1 2954 2955
2142 1 2955 2956
2143 1 2957 2958
2144 1 2958 2959
2145 1 2959 2960
2146 1 2961 2962
2147 1 2962 2963
2148 1 2963 2964
2149 1 2965 2966
2150 1 2966 2967
2151 1 2967 2968
2152 1 2969 2970
2153 1 2970 2971
2154 1 2971 2972
2155 1 2973 2974
2156 1 2974 2975
2157 1 2975 2976
2158 1 2977 2978
2159 1 2978 2979
2160 1 2979 2980

